    1C
    1UModel: beam     Date: 10-Mar-1998                                 
    1UUSER                                                              
    1UDATE              09.february.2019                                
    1UTIME              14:43:07                                        
    1UHOST                                                              
    1UPGM               CalculiX                                        
    1UVERSION           Version 2.12                             
    1UCOMPILETIME       So 2. Apr 15:03:04 CEST 2017                    
    1UDIR                                                               
    1UDBN                                                               
    1UMAT    1EL                                                        
    2C                           261                                     1
 -1         1 0.00000E+00 0.00000E+00 0.00000E+00
 -1         2 1.00000E+00 0.00000E+00 0.00000E+00
 -1         3 1.00000E+00 1.50000E+00 0.00000E+00
 -1         4 0.00000E+00 1.50000E+00 0.00000E+00
 -1         5 0.00000E+00 0.00000E+00 8.00000E+00
 -1         6 1.00000E+00 0.00000E+00 8.00000E+00
 -1         7 1.00000E+00 1.50000E+00 8.00000E+00
 -1         8 0.00000E+00 1.50000E+00 8.00000E+00
 -1         9 2.50000E-01 0.00000E+00 0.00000E+00
 -1        10 5.00000E-01 0.00000E+00 0.00000E+00
 -1        11 7.50000E-01 0.00000E+00 0.00000E+00
 -1        12 1.00000E+00 3.75000E-01 0.00000E+00
 -1        13 1.00000E+00 7.50000E-01 0.00000E+00
 -1        14 1.00000E+00 1.12500E+00 0.00000E+00
 -1        15 7.50000E-01 1.50000E+00 0.00000E+00
 -1        16 5.00000E-01 1.50000E+00 0.00000E+00
 -1        17 2.50000E-01 1.50000E+00 0.00000E+00
 -1        18 0.00000E+00 1.12500E+00 0.00000E+00
 -1        19 0.00000E+00 7.50000E-01 0.00000E+00
 -1        20 0.00000E+00 3.75000E-01 0.00000E+00
 -1        21 2.50000E-01 0.00000E+00 8.00000E+00
 -1        22 5.00000E-01 0.00000E+00 8.00000E+00
 -1        23 7.50000E-01 0.00000E+00 8.00000E+00
 -1        24 1.00000E+00 3.75000E-01 8.00000E+00
 -1        25 1.00000E+00 7.50000E-01 8.00000E+00
 -1        26 1.00000E+00 1.12500E+00 8.00000E+00
 -1        27 7.50000E-01 1.50000E+00 8.00000E+00
 -1        28 5.00000E-01 1.50000E+00 8.00000E+00
 -1        29 2.50000E-01 1.50000E+00 8.00000E+00
 -1        30 0.00000E+00 1.12500E+00 8.00000E+00
 -1        31 0.00000E+00 7.50000E-01 8.00000E+00
 -1        32 0.00000E+00 3.75000E-01 8.00000E+00
 -1        33 1.00000E+00 0.00000E+00 5.00000E-01
 -1        34 1.00000E+00 0.00000E+00 1.00000E+00
 -1        35 1.00000E+00 0.00000E+00 1.50000E+00
 -1        36 1.00000E+00 0.00000E+00 2.00000E+00
 -1        37 1.00000E+00 0.00000E+00 2.50000E+00
 -1        38 1.00000E+00 0.00000E+00 3.00000E+00
 -1        39 1.00000E+00 0.00000E+00 3.50000E+00
 -1        40 1.00000E+00 0.00000E+00 4.00000E+00
 -1        41 1.00000E+00 0.00000E+00 4.50000E+00
 -1        42 1.00000E+00 0.00000E+00 5.00000E+00
 -1        43 1.00000E+00 0.00000E+00 5.50000E+00
 -1        44 1.00000E+00 0.00000E+00 6.00000E+00
 -1        45 1.00000E+00 0.00000E+00 6.50000E+00
 -1        46 1.00000E+00 0.00000E+00 7.00000E+00
 -1        47 1.00000E+00 0.00000E+00 7.50000E+00
 -1        48 0.00000E+00 0.00000E+00 7.50000E+00
 -1        49 0.00000E+00 0.00000E+00 7.00000E+00
 -1        50 0.00000E+00 0.00000E+00 6.50000E+00
 -1        51 0.00000E+00 0.00000E+00 6.00000E+00
 -1        52 0.00000E+00 0.00000E+00 5.50000E+00
 -1        53 0.00000E+00 0.00000E+00 5.00000E+00
 -1        54 0.00000E+00 0.00000E+00 4.50000E+00
 -1        55 0.00000E+00 0.00000E+00 4.00000E+00
 -1        56 0.00000E+00 0.00000E+00 3.50000E+00
 -1        57 0.00000E+00 0.00000E+00 3.00000E+00
 -1        58 0.00000E+00 0.00000E+00 2.50000E+00
 -1        59 0.00000E+00 0.00000E+00 2.00000E+00
 -1        60 0.00000E+00 0.00000E+00 1.50000E+00
 -1        61 0.00000E+00 0.00000E+00 1.00000E+00
 -1        62 0.00000E+00 0.00000E+00 5.00000E-01
 -1        63 1.00000E+00 1.50000E+00 5.00000E-01
 -1        64 1.00000E+00 1.50000E+00 1.00000E+00
 -1        65 1.00000E+00 1.50000E+00 1.50000E+00
 -1        66 1.00000E+00 1.50000E+00 2.00000E+00
 -1        67 1.00000E+00 1.50000E+00 2.50000E+00
 -1        68 1.00000E+00 1.50000E+00 3.00000E+00
 -1        69 1.00000E+00 1.50000E+00 3.50000E+00
 -1        70 1.00000E+00 1.50000E+00 4.00000E+00
 -1        71 1.00000E+00 1.50000E+00 4.50000E+00
 -1        72 1.00000E+00 1.50000E+00 5.00000E+00
 -1        73 1.00000E+00 1.50000E+00 5.50000E+00
 -1        74 1.00000E+00 1.50000E+00 6.00000E+00
 -1        75 1.00000E+00 1.50000E+00 6.50000E+00
 -1        76 1.00000E+00 1.50000E+00 7.00000E+00
 -1        77 1.00000E+00 1.50000E+00 7.50000E+00
 -1        78 0.00000E+00 1.50000E+00 5.00000E-01
 -1        79 0.00000E+00 1.50000E+00 1.00000E+00
 -1        80 0.00000E+00 1.50000E+00 1.50000E+00
 -1        81 0.00000E+00 1.50000E+00 2.00000E+00
 -1        82 0.00000E+00 1.50000E+00 2.50000E+00
 -1        83 0.00000E+00 1.50000E+00 3.00000E+00
 -1        84 0.00000E+00 1.50000E+00 3.50000E+00
 -1        85 0.00000E+00 1.50000E+00 4.00000E+00
 -1        86 0.00000E+00 1.50000E+00 4.50000E+00
 -1        87 0.00000E+00 1.50000E+00 5.00000E+00
 -1        88 0.00000E+00 1.50000E+00 5.50000E+00
 -1        89 0.00000E+00 1.50000E+00 6.00000E+00
 -1        90 0.00000E+00 1.50000E+00 6.50000E+00
 -1        91 0.00000E+00 1.50000E+00 7.00000E+00
 -1        92 0.00000E+00 1.50000E+00 7.50000E+00
 -1        93 5.00000E-01 3.75000E-01 0.00000E+00
 -1        94 2.50000E-01 7.50000E-01 0.00000E+00
 -1        95 5.00000E-01 7.50000E-01 0.00000E+00
 -1        96 7.50000E-01 7.50000E-01 0.00000E+00
 -1        97 5.00000E-01 1.12500E+00 0.00000E+00
 -1        98 5.00000E-01 3.75000E-01 8.00000E+00
 -1        99 2.50000E-01 7.50000E-01 8.00000E+00
 -1       100 5.00000E-01 7.50000E-01 8.00000E+00
 -1       101 7.50000E-01 7.50000E-01 8.00000E+00
 -1       102 5.00000E-01 1.12500E+00 8.00000E+00
 -1       103 5.00000E-01 0.00000E+00 5.00000E-01
 -1       104 2.50000E-01 0.00000E+00 1.00000E+00
 -1       105 5.00000E-01 0.00000E+00 1.00000E+00
 -1       106 7.50000E-01 0.00000E+00 1.00000E+00
 -1       107 5.00000E-01 0.00000E+00 1.50000E+00
 -1       108 2.50000E-01 0.00000E+00 2.00000E+00
 -1       109 5.00000E-01 0.00000E+00 2.00000E+00
 -1       110 7.50000E-01 0.00000E+00 2.00000E+00
 -1       111 5.00000E-01 0.00000E+00 2.50000E+00
 -1       112 2.50000E-01 0.00000E+00 3.00000E+00
 -1       113 5.00000E-01 0.00000E+00 3.00000E+00
 -1       114 7.50000E-01 0.00000E+00 3.00000E+00
 -1       115 5.00000E-01 0.00000E+00 3.50000E+00
 -1       116 2.50000E-01 0.00000E+00 4.00000E+00
 -1       117 5.00000E-01 0.00000E+00 4.00000E+00
 -1       118 7.50000E-01 0.00000E+00 4.00000E+00
 -1       119 5.00000E-01 0.00000E+00 4.50000E+00
 -1       120 2.50000E-01 0.00000E+00 5.00000E+00
 -1       121 5.00000E-01 0.00000E+00 5.00000E+00
 -1       122 7.50000E-01 0.00000E+00 5.00000E+00
 -1       123 5.00000E-01 0.00000E+00 5.50000E+00
 -1       124 2.50000E-01 0.00000E+00 6.00000E+00
 -1       125 5.00000E-01 0.00000E+00 6.00000E+00
 -1       126 7.50000E-01 0.00000E+00 6.00000E+00
 -1       127 5.00000E-01 0.00000E+00 6.50000E+00
 -1       128 2.50000E-01 0.00000E+00 7.00000E+00
 -1       129 5.00000E-01 0.00000E+00 7.00000E+00
 -1       130 7.50000E-01 0.00000E+00 7.00000E+00
 -1       131 5.00000E-01 0.00000E+00 7.50000E+00
 -1       132 1.00000E+00 7.50000E-01 5.00000E-01
 -1       133 1.00000E+00 3.75000E-01 1.00000E+00
 -1       134 1.00000E+00 7.50000E-01 1.00000E+00
 -1       135 1.00000E+00 1.12500E+00 1.00000E+00
 -1       136 1.00000E+00 7.50000E-01 1.50000E+00
 -1       137 1.00000E+00 3.75000E-01 2.00000E+00
 -1       138 1.00000E+00 7.50000E-01 2.00000E+00
 -1       139 1.00000E+00 1.12500E+00 2.00000E+00
 -1       140 1.00000E+00 7.50000E-01 2.50000E+00
 -1       141 1.00000E+00 3.75000E-01 3.00000E+00
 -1       142 1.00000E+00 7.50000E-01 3.00000E+00
 -1       143 1.00000E+00 1.12500E+00 3.00000E+00
 -1       144 1.00000E+00 7.50000E-01 3.50000E+00
 -1       145 1.00000E+00 3.75000E-01 4.00000E+00
 -1       146 1.00000E+00 7.50000E-01 4.00000E+00
 -1       147 1.00000E+00 1.12500E+00 4.00000E+00
 -1       148 1.00000E+00 7.50000E-01 4.50000E+00
 -1       149 1.00000E+00 3.75000E-01 5.00000E+00
 -1       150 1.00000E+00 7.50000E-01 5.00000E+00
 -1       151 1.00000E+00 1.12500E+00 5.00000E+00
 -1       152 1.00000E+00 7.50000E-01 5.50000E+00
 -1       153 1.00000E+00 3.75000E-01 6.00000E+00
 -1       154 1.00000E+00 7.50000E-01 6.00000E+00
 -1       155 1.00000E+00 1.12500E+00 6.00000E+00
 -1       156 1.00000E+00 7.50000E-01 6.50000E+00
 -1       157 1.00000E+00 3.75000E-01 7.00000E+00
 -1       158 1.00000E+00 7.50000E-01 7.00000E+00
 -1       159 1.00000E+00 1.12500E+00 7.00000E+00
 -1       160 1.00000E+00 7.50000E-01 7.50000E+00
 -1       161 5.00000E-01 1.50000E+00 5.00000E-01
 -1       162 7.50000E-01 1.50000E+00 1.00000E+00
 -1       163 5.00000E-01 1.50000E+00 1.00000E+00
 -1       164 2.50000E-01 1.50000E+00 1.00000E+00
 -1       165 5.00000E-01 1.50000E+00 1.50000E+00
 -1       166 7.50000E-01 1.50000E+00 2.00000E+00
 -1       167 5.00000E-01 1.50000E+00 2.00000E+00
 -1       168 2.50000E-01 1.50000E+00 2.00000E+00
 -1       169 5.00000E-01 1.50000E+00 2.50000E+00
 -1       170 7.50000E-01 1.50000E+00 3.00000E+00
 -1       171 5.00000E-01 1.50000E+00 3.00000E+00
 -1       172 2.50000E-01 1.50000E+00 3.00000E+00
 -1       173 5.00000E-01 1.50000E+00 3.50000E+00
 -1       174 7.50000E-01 1.50000E+00 4.00000E+00
 -1       175 5.00000E-01 1.50000E+00 4.00000E+00
 -1       176 2.50000E-01 1.50000E+00 4.00000E+00
 -1       177 5.00000E-01 1.50000E+00 4.50000E+00
 -1       178 7.50000E-01 1.50000E+00 5.00000E+00
 -1       179 5.00000E-01 1.50000E+00 5.00000E+00
 -1       180 2.50000E-01 1.50000E+00 5.00000E+00
 -1       181 5.00000E-01 1.50000E+00 5.50000E+00
 -1       182 7.50000E-01 1.50000E+00 6.00000E+00
 -1       183 5.00000E-01 1.50000E+00 6.00000E+00
 -1       184 2.50000E-01 1.50000E+00 6.00000E+00
 -1       185 5.00000E-01 1.50000E+00 6.50000E+00
 -1       186 7.50000E-01 1.50000E+00 7.00000E+00
 -1       187 5.00000E-01 1.50000E+00 7.00000E+00
 -1       188 2.50000E-01 1.50000E+00 7.00000E+00
 -1       189 5.00000E-01 1.50000E+00 7.50000E+00
 -1       190 0.00000E+00 7.50000E-01 5.00000E-01
 -1       191 0.00000E+00 1.12500E+00 1.00000E+00
 -1       192 0.00000E+00 7.50000E-01 1.00000E+00
 -1       193 0.00000E+00 3.75000E-01 1.00000E+00
 -1       194 0.00000E+00 7.50000E-01 1.50000E+00
 -1       195 0.00000E+00 1.12500E+00 2.00000E+00
 -1       196 0.00000E+00 7.50000E-01 2.00000E+00
 -1       197 0.00000E+00 3.75000E-01 2.00000E+00
 -1       198 0.00000E+00 7.50000E-01 2.50000E+00
 -1       199 0.00000E+00 1.12500E+00 3.00000E+00
 -1       200 0.00000E+00 7.50000E-01 3.00000E+00
 -1       201 0.00000E+00 3.75000E-01 3.00000E+00
 -1       202 0.00000E+00 7.50000E-01 3.50000E+00
 -1       203 0.00000E+00 1.12500E+00 4.00000E+00
 -1       204 0.00000E+00 7.50000E-01 4.00000E+00
 -1       205 0.00000E+00 3.75000E-01 4.00000E+00
 -1       206 0.00000E+00 7.50000E-01 4.50000E+00
 -1       207 0.00000E+00 1.12500E+00 5.00000E+00
 -1       208 0.00000E+00 7.50000E-01 5.00000E+00
 -1       209 0.00000E+00 3.75000E-01 5.00000E+00
 -1       210 0.00000E+00 7.50000E-01 5.50000E+00
 -1       211 0.00000E+00 1.12500E+00 6.00000E+00
 -1       212 0.00000E+00 7.50000E-01 6.00000E+00
 -1       213 0.00000E+00 3.75000E-01 6.00000E+00
 -1       214 0.00000E+00 7.50000E-01 6.50000E+00
 -1       215 0.00000E+00 1.12500E+00 7.00000E+00
 -1       216 0.00000E+00 7.50000E-01 7.00000E+00
 -1       217 0.00000E+00 3.75000E-01 7.00000E+00
 -1       218 0.00000E+00 7.50000E-01 7.50000E+00
 -1       219 5.00000E-01 7.50000E-01 5.00000E-01
 -1       220 5.00000E-01 3.75000E-01 1.00000E+00
 -1       221 2.50000E-01 7.50000E-01 1.00000E+00
 -1       222 5.00000E-01 7.50000E-01 1.00000E+00
 -1       223 7.50000E-01 7.50000E-01 1.00000E+00
 -1       224 5.00000E-01 1.12500E+00 1.00000E+00
 -1       225 5.00000E-01 7.50000E-01 1.50000E+00
 -1       226 5.00000E-01 3.75000E-01 2.00000E+00
 -1       227 2.50000E-01 7.50000E-01 2.00000E+00
 -1       228 5.00000E-01 7.50000E-01 2.00000E+00
 -1       229 7.50000E-01 7.50000E-01 2.00000E+00
 -1       230 5.00000E-01 1.12500E+00 2.00000E+00
 -1       231 5.00000E-01 7.50000E-01 2.50000E+00
 -1       232 5.00000E-01 3.75000E-01 3.00000E+00
 -1       233 2.50000E-01 7.50000E-01 3.00000E+00
 -1       234 5.00000E-01 7.50000E-01 3.00000E+00
 -1       235 7.50000E-01 7.50000E-01 3.00000E+00
 -1       236 5.00000E-01 1.12500E+00 3.00000E+00
 -1       237 5.00000E-01 7.50000E-01 3.50000E+00
 -1       238 5.00000E-01 3.75000E-01 4.00000E+00
 -1       239 2.50000E-01 7.50000E-01 4.00000E+00
 -1       240 5.00000E-01 7.50000E-01 4.00000E+00
 -1       241 7.50000E-01 7.50000E-01 4.00000E+00
 -1       242 5.00000E-01 1.12500E+00 4.00000E+00
 -1       243 5.00000E-01 7.50000E-01 4.50000E+00
 -1       244 5.00000E-01 3.75000E-01 5.00000E+00
 -1       245 2.50000E-01 7.50000E-01 5.00000E+00
 -1       246 5.00000E-01 7.50000E-01 5.00000E+00
 -1       247 7.50000E-01 7.50000E-01 5.00000E+00
 -1       248 5.00000E-01 1.12500E+00 5.00000E+00
 -1       249 5.00000E-01 7.50000E-01 5.50000E+00
 -1       250 5.00000E-01 3.75000E-01 6.00000E+00
 -1       251 2.50000E-01 7.50000E-01 6.00000E+00
 -1       252 5.00000E-01 7.50000E-01 6.00000E+00
 -1       253 7.50000E-01 7.50000E-01 6.00000E+00
 -1       254 5.00000E-01 1.12500E+00 6.00000E+00
 -1       255 5.00000E-01 7.50000E-01 6.50000E+00
 -1       256 5.00000E-01 3.75000E-01 7.00000E+00
 -1       257 2.50000E-01 7.50000E-01 7.00000E+00
 -1       258 5.00000E-01 7.50000E-01 7.00000E+00
 -1       259 7.50000E-01 7.50000E-01 7.00000E+00
 -1       260 5.00000E-01 1.12500E+00 7.00000E+00
 -1       261 5.00000E-01 7.50000E-01 7.50000E+00
 -3
    3C                            32                                     1
 -1         1    4    0    1
 -2         1        10        95        19        61       105       222       192         9        93
 -2        94        20        62       103       219       190       104       220       221       193
 -1         2    4    0    1
 -2        10         2        13        95       105        34       134       222        11        12
 -2        96        93       103        33       132       219       106       133       223       220
 -1         3    4    0    1
 -2        19        95        16         4       192       222       163        79        94        97
 -2        17        18       190       219       161        78       221       224       164       191
 -1         4    4    0    1
 -2        95        13         3        16       222       134        64       163        96        14
 -2        15        97       219       132        63       161       223       135       162       224
 -1         5    4    0    1
 -2        61       105       222       192        59       109       228       196       104       220
 -2       221       193        60       107       225       194       108       226       227       197
 -1         6    4    0    1
 -2       105        34       134       222       109        36       138       228       106       133
 -2       223       220       107        35       136       225       110       137       229       226
 -1         7    4    0    1
 -2       192       222       163        79       196       228       167        81       221       224
 -2       164       191       194       225       165        80       227       230       168       195
 -1         8    4    0    1
 -2       222       134        64       163       228       138        66       167       223       135
 -2       162       224       225       136        65       165       229       139       166       230
 -1         9    4    0    1
 -2        59       109       228       196        57       113       234       200       108       226
 -2       227       197        58       111       231       198       112       232       233       201
 -1        10    4    0    1
 -2       109        36       138       228       113        38       142       234       110       137
 -2       229       226       111        37       140       231       114       141       235       232
 -1        11    4    0    1
 -2       196       228       167        81       200       234       171        83       227       230
 -2       168       195       198       231       169        82       233       236       172       199
 -1        12    4    0    1
 -2       228       138        66       167       234       142        68       171       229       139
 -2       166       230       231       140        67       169       235       143       170       236
 -1        13    4    0    1
 -2        57       113       234       200        55       117       240       204       112       232
 -2       233       201        56       115       237       202       116       238       239       205
 -1        14    4    0    1
 -2       113        38       142       234       117        40       146       240       114       141
 -2       235       232       115        39       144       237       118       145       241       238
 -1        15    4    0    1
 -2       200       234       171        83       204       240       175        85       233       236
 -2       172       199       202       237       173        84       239       242       176       203
 -1        16    4    0    1
 -2       234       142        68       171       240       146        70       175       235       143
 -2       170       236       237       144        69       173       241       147       174       242
 -1        17    4    0    1
 -2        55       117       240       204        53       121       246       208       116       238
 -2       239       205        54       119       243       206       120       244       245       209
 -1        18    4    0    1
 -2       117        40       146       240       121        42       150       246       118       145
 -2       241       238       119        41       148       243       122       149       247       244
 -1        19    4    0    1
 -2       204       240       175        85       208       246       179        87       239       242
 -2       176       203       206       243       177        86       245       248       180       207
 -1        20    4    0    1
 -2       240       146        70       175       246       150        72       179       241       147
 -2       174       242       243       148        71       177       247       151       178       248
 -1        21    4    0    1
 -2        53       121       246       208        51       125       252       212       120       244
 -2       245       209        52       123       249       210       124       250       251       213
 -1        22    4    0    1
 -2       121        42       150       246       125        44       154       252       122       149
 -2       247       244       123        43       152       249       126       153       253       250
 -1        23    4    0    1
 -2       208       246       179        87       212       252       183        89       245       248
 -2       180       207       210       249       181        88       251       254       184       211
 -1        24    4    0    1
 -2       246       150        72       179       252       154        74       183       247       151
 -2       178       248       249       152        73       181       253       155       182       254
 -1        25    4    0    1
 -2        51       125       252       212        49       129       258       216       124       250
 -2       251       213        50       127       255       214       128       256       257       217
 -1        26    4    0    1
 -2       125        44       154       252       129        46       158       258       126       153
 -2       253       250       127        45       156       255       130       157       259       256
 -1        27    4    0    1
 -2       212       252       183        89       216       258       187        91       251       254
 -2       184       211       214       255       185        90       257       260       188       215
 -1        28    4    0    1
 -2       252       154        74       183       258       158        76       187       253       155
 -2       182       254       255       156        75       185       259       159       186       260
 -1        29    4    0    1
 -2        49       129       258       216         5        22       100        31       128       256
 -2       257       217        48       131       261       218        21        98        99        32
 -1        30    4    0    1
 -2       129        46       158       258        22         6        25       100       130       157
 -2       259       256       131        47       160       261        23        24       101        98
 -1        31    4    0    1
 -2       216       258       187        91        31       100        28         8       257       260
 -2       188       215       218       261       189        92        99       102        29        30
 -1        32    4    0    1
 -2       258       158        76       187       100        25         7        28       259       159
 -2       186       260       261       160        77       189       101        26        27       102
 -3
    1PSTEP                         1           1           1          
  100CL  101 1.000000000         261                     0    1           1
 -4  DISP        4    1
 -5  D1          1    2    1    0
 -5  D2          1    2    2    0
 -5  D3          1    2    3    0
 -5  ALL         1    2    0    0    1ALL
 -1         1 0.00000E+00 0.00000E+00 0.00000E+00
 -1         2 0.00000E+00 0.00000E+00 0.00000E+00
 -1         3 0.00000E+00 0.00000E+00 0.00000E+00
 -1         4 0.00000E+00 0.00000E+00 0.00000E+00
 -1         5-3.37882E-08 2.63956E-05 3.65218E-06
 -1         6 3.37882E-08 2.63956E-05 3.65218E-06
 -1         7-3.37882E-08 2.63956E-05-3.65218E-06
 -1         8 3.37882E-08 2.63956E-05-3.65218E-06
 -1         9 0.00000E+00 0.00000E+00 0.00000E+00
 -1        10 0.00000E+00 0.00000E+00 0.00000E+00
 -1        11 0.00000E+00 0.00000E+00 0.00000E+00
 -1        12 0.00000E+00 0.00000E+00 0.00000E+00
 -1        13 0.00000E+00 0.00000E+00 0.00000E+00
 -1        14 0.00000E+00 0.00000E+00 0.00000E+00
 -1        15 0.00000E+00 0.00000E+00 0.00000E+00
 -1        16 0.00000E+00 0.00000E+00 0.00000E+00
 -1        17 0.00000E+00 0.00000E+00 0.00000E+00
 -1        18 0.00000E+00 0.00000E+00 0.00000E+00
 -1        19 0.00000E+00 0.00000E+00 0.00000E+00
 -1        20 0.00000E+00 0.00000E+00 0.00000E+00
 -1        21-1.53099E-08 2.63347E-05 3.64677E-06
 -1        22 7.60088E-17 2.63236E-05 3.63533E-06
 -1        23 1.53099E-08 2.63347E-05 3.64677E-06
 -1        24-1.48373E-09 2.63296E-05 1.79675E-06
 -1        25 7.62427E-17 2.62953E-05-6.90859E-18
 -1        26 1.48373E-09 2.63296E-05-1.79675E-06
 -1        27-1.53099E-08 2.63347E-05-3.64677E-06
 -1        28 7.65359E-17 2.63236E-05-3.63533E-06
 -1        29 1.53099E-08 2.63347E-05-3.64677E-06
 -1        30-1.48373E-09 2.63296E-05-1.79675E-06
 -1        31 7.62890E-17 2.62953E-05 7.11047E-18
 -1        32 1.48373E-09 2.63296E-05 1.79675E-06
 -1        33-1.43209E-07 2.12575E-07 4.13231E-07
 -1        34-9.89222E-08 6.42269E-07 8.26095E-07
 -1        35-1.12026E-07 1.37756E-06 1.21461E-06
 -1        36-1.00294E-07 2.33270E-06 1.57186E-06
 -1        37-9.47439E-08 3.53387E-06 1.89891E-06
 -1        38-8.50624E-08 4.93548E-06 2.19860E-06
 -1        39-7.71386E-08 6.53089E-06 2.47026E-06
 -1        40-6.84481E-08 8.29604E-06 2.71344E-06
 -1        41-6.01251E-08 1.02139E-05 2.92737E-06
 -1        42-5.19675E-08 1.22654E-05 3.11293E-06
 -1        43-4.21486E-08 1.44310E-05 3.27056E-06
 -1        44-3.34946E-08 1.66968E-05 3.40036E-06
 -1        45-2.71238E-08 1.90244E-05 3.49780E-06
 -1        46-2.52534E-08 2.14234E-05 3.56778E-06
 -1        47 2.94156E-09 2.38585E-05 3.61660E-06
 -1        48-2.94156E-09 2.38585E-05 3.61660E-06
 -1        49 2.52534E-08 2.14234E-05 3.56778E-06
 -1        50 2.71238E-08 1.90244E-05 3.49780E-06
 -1        51 3.34946E-08 1.66968E-05 3.40036E-06
 -1        52 4.21486E-08 1.44310E-05 3.27056E-06
 -1        53 5.19675E-08 1.22654E-05 3.11293E-06
 -1        54 6.01251E-08 1.02139E-05 2.92737E-06
 -1        55 6.84481E-08 8.29604E-06 2.71344E-06
 -1        56 7.71386E-08 6.53089E-06 2.47026E-06
 -1        57 8.50624E-08 4.93548E-06 2.19860E-06
 -1        58 9.47439E-08 3.53387E-06 1.89891E-06
 -1        59 1.00294E-07 2.33270E-06 1.57186E-06
 -1        60 1.12026E-07 1.37756E-06 1.21461E-06
 -1        61 9.89222E-08 6.42269E-07 8.26095E-07
 -1        62 1.43209E-07 2.12575E-07 4.13231E-07
 -1        63 1.43209E-07 2.12575E-07-4.13231E-07
 -1        64 9.89222E-08 6.42269E-07-8.26095E-07
 -1        65 1.12026E-07 1.37756E-06-1.21461E-06
 -1        66 1.00294E-07 2.33270E-06-1.57186E-06
 -1        67 9.47439E-08 3.53387E-06-1.89891E-06
 -1        68 8.50624E-08 4.93548E-06-2.19860E-06
 -1        69 7.71386E-08 6.53089E-06-2.47026E-06
 -1        70 6.84481E-08 8.29604E-06-2.71344E-06
 -1        71 6.01251E-08 1.02139E-05-2.92737E-06
 -1        72 5.19675E-08 1.22654E-05-3.11293E-06
 -1        73 4.21486E-08 1.44310E-05-3.27056E-06
 -1        74 3.34946E-08 1.66968E-05-3.40036E-06
 -1        75 2.71238E-08 1.90244E-05-3.49780E-06
 -1        76 2.52534E-08 2.14234E-05-3.56778E-06
 -1        77-2.94156E-09 2.38585E-05-3.61660E-06
 -1        78-1.43209E-07 2.12575E-07-4.13231E-07
 -1        79-9.89222E-08 6.42269E-07-8.26095E-07
 -1        80-1.12026E-07 1.37756E-06-1.21461E-06
 -1        81-1.00294E-07 2.33270E-06-1.57186E-06
 -1        82-9.47439E-08 3.53387E-06-1.89891E-06
 -1        83-8.50624E-08 4.93548E-06-2.19860E-06
 -1        84-7.71386E-08 6.53089E-06-2.47026E-06
 -1        85-6.84481E-08 8.29604E-06-2.71344E-06
 -1        86-6.01251E-08 1.02139E-05-2.92737E-06
 -1        87-5.19675E-08 1.22654E-05-3.11293E-06
 -1        88-4.21486E-08 1.44310E-05-3.27056E-06
 -1        89-3.34946E-08 1.66968E-05-3.40036E-06
 -1        90-2.71238E-08 1.90244E-05-3.49780E-06
 -1        91-2.52534E-08 2.14234E-05-3.56778E-06
 -1        92 2.94156E-09 2.38585E-05-3.61660E-06
 -1        93 0.00000E+00 0.00000E+00 0.00000E+00
 -1        94 0.00000E+00 0.00000E+00 0.00000E+00
 -1        95 0.00000E+00 0.00000E+00 0.00000E+00
 -1        96 0.00000E+00 0.00000E+00 0.00000E+00
 -1        97 0.00000E+00 0.00000E+00 0.00000E+00
 -1        98 7.60985E-17 2.63026E-05 1.80212E-06
 -1        99 7.62481E-17 2.62943E-05 3.57470E-18
 -1       100 7.62160E-17 2.62864E-05 6.93268E-20
 -1       101 7.62270E-17 2.62943E-05-3.41658E-18
 -1       102 7.63528E-17 2.63026E-05-1.80212E-06
 -1       103 2.23700E-19 2.53728E-07 3.97908E-07
 -1       104 4.93721E-08 6.75457E-07 8.33250E-07
 -1       105 1.48278E-18 6.83172E-07 8.40144E-07
 -1       106-4.93721E-08 6.75457E-07 8.33250E-07
 -1       107 3.49975E-18 1.41266E-06 1.21564E-06
 -1       108 5.00218E-08 2.35872E-06 1.57505E-06
 -1       109 6.32163E-18 2.36926E-06 1.57623E-06
 -1       110-5.00218E-08 2.35872E-06 1.57505E-06
 -1       111 9.78623E-18 3.56458E-06 1.90137E-06
 -1       112 4.25432E-08 4.95759E-06 2.20114E-06
 -1       113 1.38847E-17 4.96494E-06 2.20151E-06
 -1       114-4.25432E-08 4.95759E-06 2.20114E-06
 -1       115 1.85181E-17 6.55637E-06 2.47290E-06
 -1       116 3.42191E-08 8.31301E-06 2.71580E-06
 -1       117 2.36558E-17 8.31888E-06 2.71608E-06
 -1       118-3.42191E-08 8.31301E-06 2.71580E-06
 -1       119 2.92175E-17 1.02341E-05 2.93007E-06
 -1       120 2.59695E-08 1.22785E-05 3.11547E-06
 -1       121 3.51674E-17 1.22821E-05 3.11578E-06
 -1       122-2.59695E-08 1.22785E-05 3.11547E-06
 -1       123 4.14739E-17 1.44454E-05 3.27311E-06
 -1       124 1.68399E-08 1.67015E-05 3.40232E-06
 -1       125 4.80395E-17 1.67038E-05 3.40229E-06
 -1       126-1.68399E-08 1.67015E-05 3.40232E-06
 -1       127 5.48750E-17 1.90371E-05 3.50068E-06
 -1       128 1.21735E-08 2.14319E-05 3.57126E-06
 -1       129 6.18546E-17 2.14248E-05 3.57251E-06
 -1       130-1.21735E-08 2.14319E-05 3.57126E-06
 -1       131 6.89129E-17 2.38594E-05 3.61816E-06
 -1       132 6.24076E-19 1.00197E-07-7.95014E-19
 -1       133-4.97134E-08 5.82788E-07 4.03213E-07
 -1       134 1.85321E-18 5.82066E-07-1.65095E-18
 -1       135 4.97134E-08 5.82788E-07-4.03213E-07
 -1       136 3.96525E-18 1.28638E-06-2.39869E-18
 -1       137-5.01532E-08 2.28152E-06 7.75540E-07
 -1       138 6.75519E-18 2.26522E-06-3.10350E-18
 -1       139 5.01532E-08 2.28152E-06-7.75540E-07
 -1       140 1.02539E-17 3.46125E-06-3.74665E-18
 -1       141-4.25428E-08 4.88796E-06 1.08988E-06
 -1       142 1.43491E-17 4.87352E-06-4.33091E-18
 -1       143 4.25428E-08 4.88796E-06-1.08988E-06
 -1       144 1.90124E-17 6.47261E-06-4.85003E-18
 -1       145-3.42755E-08 8.25768E-06 1.34688E-06
 -1       146 2.41596E-17 8.24488E-06-5.30846E-18
 -1       147 3.42755E-08 8.25768E-06-1.34688E-06
 -1       148 2.97393E-17 1.01691E-05-5.70813E-18
 -1       149-2.57363E-08 1.22363E-05 1.54708E-06
 -1       150 3.56973E-17 1.22262E-05-6.05750E-18
 -1       151 2.57363E-08 1.22363E-05-1.54708E-06
 -1       152 4.19884E-17 1.43994E-05-6.34702E-18
 -1       153-1.78184E-08 1.66735E-05 1.68934E-06
 -1       154 4.85492E-17 1.66647E-05-6.57479E-18
 -1       155 1.78184E-08 1.66735E-05-1.68934E-06
 -1       156 5.52888E-17 1.90098E-05-6.74679E-18
 -1       157-8.29632E-09 2.14132E-05 1.77811E-06
 -1       158 6.22103E-17 2.14022E-05-6.85764E-18
 -1       159 8.29632E-09 2.14132E-05-1.77811E-06
 -1       160 6.92034E-17 2.38579E-05-6.89825E-18
 -1       161 2.79121E-19 2.53728E-07-3.97908E-07
 -1       162 4.93721E-08 6.75457E-07-8.33250E-07
 -1       163 1.60789E-18 6.83172E-07-8.40144E-07
 -1       164-4.93721E-08 6.75457E-07-8.33250E-07
 -1       165 3.68938E-18 1.41266E-06-1.21564E-06
 -1       166 5.00218E-08 2.35872E-06-1.57505E-06
 -1       167 6.57912E-18 2.36926E-06-1.57623E-06
 -1       168-5.00218E-08 2.35872E-06-1.57505E-06
 -1       169 1.01155E-17 3.56458E-06-1.90137E-06
 -1       170 4.25432E-08 4.95759E-06-2.20114E-06
 -1       171 1.42959E-17 4.96494E-06-2.20151E-06
 -1       172-4.25432E-08 4.95759E-06-2.20114E-06
 -1       173 1.90173E-17 6.55637E-06-2.47290E-06
 -1       174 3.42191E-08 8.31301E-06-2.71580E-06
 -1       175 2.42434E-17 8.31888E-06-2.71608E-06
 -1       176-3.42191E-08 8.31301E-06-2.71580E-06
 -1       177 2.98893E-17 1.02341E-05-2.93007E-06
 -1       178 2.59695E-08 1.22785E-05-3.11547E-06
 -1       179 3.59161E-17 1.22821E-05-3.11578E-06
 -1       180-2.59695E-08 1.22785E-05-3.11547E-06
 -1       181 4.22552E-17 1.44454E-05-3.27311E-06
 -1       182 1.68399E-08 1.67015E-05-3.40232E-06
 -1       183 4.88397E-17 1.67038E-05-3.40229E-06
 -1       184-1.68399E-08 1.67015E-05-3.40232E-06
 -1       185 5.55917E-17 1.90371E-05-3.50068E-06
 -1       186 1.21735E-08 2.14319E-05-3.57126E-06
 -1       187 6.24881E-17 2.14248E-05-3.57251E-06
 -1       188-1.21735E-08 2.14319E-05-3.57126E-06
 -1       189 6.94824E-17 2.38594E-05-3.61816E-06
 -1       190 6.26595E-19 1.00197E-07 8.01119E-19
 -1       191-4.97134E-08 5.82788E-07-4.03213E-07
 -1       192 1.85584E-18 5.82066E-07 1.66285E-18
 -1       193 4.97134E-08 5.82788E-07 4.03213E-07
 -1       194 3.96608E-18 1.28638E-06 2.41660E-18
 -1       195-5.01532E-08 2.28152E-06-7.75540E-07
 -1       196 6.75872E-18 2.26522E-06 3.12857E-18
 -1       197 5.01532E-08 2.28152E-06 7.75540E-07
 -1       198 1.02565E-17 3.46125E-06 3.77649E-18
 -1       199-4.25428E-08 4.88796E-06-1.08988E-06
 -1       200 1.43537E-17 4.87352E-06 4.36561E-18
 -1       201 4.25428E-08 4.88796E-06 1.08988E-06
 -1       202 1.90154E-17 6.47261E-06 4.89207E-18
 -1       203-3.42755E-08 8.25768E-06-1.34688E-06
 -1       204 2.41730E-17 8.24488E-06 5.36404E-18
 -1       205 3.42755E-08 8.25768E-06 1.34688E-06
 -1       206 2.97392E-17 1.01691E-05 5.77971E-18
 -1       207-2.57363E-08 1.22363E-05-1.54708E-06
 -1       208 3.57036E-17 1.22262E-05 6.14003E-18
 -1       209 2.57363E-08 1.22363E-05 1.54708E-06
 -1       210 4.19890E-17 1.43994E-05 6.43661E-18
 -1       211-1.78184E-08 1.66735E-05-1.68934E-06
 -1       212 4.85501E-17 1.66647E-05 6.68146E-18
 -1       213 1.78184E-08 1.66735E-05 1.68934E-06
 -1       214 5.53009E-17 1.90098E-05 6.87095E-18
 -1       215-8.29632E-09 2.14132E-05-1.77811E-06
 -1       216 6.22177E-17 2.14022E-05 6.99236E-18
 -1       217 8.29632E-09 2.14132E-05 1.77811E-06
 -1       218 6.91923E-17 2.38579E-05 7.07235E-18
 -1       219 4.46415E-19 1.40634E-07 3.01192E-21
 -1       220 1.71429E-18 6.20233E-07 4.09857E-07
 -1       221 1.77808E-18 6.12788E-07 8.21890E-19
 -1       222 1.78436E-18 6.17703E-07 6.96155E-21
 -1       223 1.77644E-18 6.12788E-07-8.09290E-19
 -1       224 1.77656E-18 6.20233E-07-4.09857E-07
 -1       225 3.83501E-18 1.32408E-06 9.46956E-21
 -1       226 6.55212E-18 2.31621E-06 7.78591E-07
 -1       227 6.69547E-18 2.28920E-06 1.56318E-18
 -1       228 6.67720E-18 2.29767E-06 1.18932E-20
 -1       229 6.69440E-18 2.28920E-06-1.53944E-18
 -1       230 6.68143E-18 2.31621E-06-7.78591E-07
 -1       231 1.01587E-17 3.49307E-06 1.45133E-20
 -1       232 1.41270E-17 4.91662E-06 1.09218E-06
 -1       233 1.42928E-17 4.89487E-06 2.18484E-18
 -1       234 1.42752E-17 4.90150E-06 1.71259E-20
 -1       235 1.42896E-17 4.89487E-06-2.14943E-18
 -1       236 1.43321E-17 4.91662E-06-1.09218E-06
 -1       237 1.89372E-17 6.49846E-06 2.15720E-20
 -1       238 2.39145E-17 8.28055E-06 1.34908E-06
 -1       239 2.41177E-17 8.26193E-06 2.69249E-18
 -1       240 2.40971E-17 8.26765E-06 3.21052E-20
 -1       241 2.41121E-17 8.26193E-06-2.63159E-18
 -1       242 2.42082E-17 8.28055E-06-1.34908E-06
 -1       243 2.96805E-17 1.01890E-05 3.52445E-20
 -1       244 3.54404E-17 1.22533E-05 1.54918E-06
 -1       245 3.56625E-17 1.22393E-05 3.08092E-18
 -1       246 3.56446E-17 1.22439E-05 3.55034E-20
 -1       247 3.56583E-17 1.22393E-05-3.00411E-18
 -1       248 3.58054E-17 1.22533E-05-1.54918E-06
 -1       249 4.19531E-17 1.44131E-05 4.09752E-20
 -1       250 4.82896E-17 1.66840E-05 1.69188E-06
 -1       251 4.85234E-17 1.66740E-05 3.35651E-18
 -1       252 4.85183E-17 1.66772E-05 4.92386E-20
 -1       253 4.85277E-17 1.66740E-05-3.25817E-18
 -1       254 4.86849E-17 1.66840E-05-1.69188E-06
 -1       255 5.52822E-17 1.90181E-05 6.51157E-20
 -1       256 6.20306E-17 2.14150E-05 1.77876E-06
 -1       257 6.21971E-17 2.14072E-05 3.53574E-18
 -1       258 6.21822E-17 2.14110E-05 7.82447E-20
 -1       259 6.21914E-17 2.14072E-05-3.38329E-18
 -1       260 6.23503E-17 2.14150E-05-1.77876E-06
 -1       261 6.91974E-17 2.38554E-05 7.48061E-20
 -3
    1PSTEP                         2           1           1          
  100CL  101 1.000000000         261                     0    1           1
 -4  STRESS      6    1
 -5  SXX         1    4    1    1
 -5  SYY         1    4    2    2
 -5  SZZ         1    4    3    3
 -5  SXY         1    4    1    2
 -5  SYZ         1    4    2    3
 -5  SZX         1    4    3    1
 -1         1 5.51925E+04 6.35701E+04 2.07900E+05-4.50127E+03 1.58929E+04 3.58795E+04
 -1         2 5.51925E+04 6.35701E+04 2.07900E+05 4.50127E+03 1.58929E+04-3.58795E+04
 -1         3-5.51925E+04-6.35701E+04-2.07900E+05 4.50127E+03 1.58929E+04 3.58795E+04
 -1         4-5.51925E+04-6.35701E+04-2.07900E+05-4.50127E+03 1.58929E+04-3.58795E+04
 -1         5 3.62927E+03-2.76223E+04 1.93521E+03-1.10317E+04 8.78539E+03-2.33422E+03
 -1         6 3.62927E+03-2.76223E+04 1.93521E+03 1.10317E+04 8.78539E+03 2.33422E+03
 -1         7-3.62927E+03 2.76223E+04-1.93521E+03 1.10317E+04 8.78539E+03-2.33422E+03
 -1         8-3.62927E+03 2.76223E+04-1.93521E+03-1.10317E+04 8.78539E+03 2.33422E+03
 -1         9 5.07168E+04 5.92321E+04 1.97319E+05-1.13599E+03 2.16686E+04 1.67341E+04
 -1        10 4.62410E+04 5.48941E+04 1.86738E+05-1.28891E-08 2.74444E+04-4.42299E-08
 -1        11 5.07168E+04 5.92321E+04 1.97319E+05 1.13599E+03 2.16686E+04-1.67341E+04
 -1        12 2.27688E+04 2.10507E+04 9.85916E+04 4.39798E+03 1.75433E+02-1.79466E+04
 -1        13-1.11441E-07-1.18151E-07-3.86870E-07 4.29469E+03-1.55420E+04 5.71488E-08
 -1        14-2.27688E+04-2.10507E+04-9.85916E+04 4.39798E+03 1.75433E+02 1.79466E+04
 -1        15-5.07168E+04-5.92321E+04-1.97319E+05 1.13599E+03 2.16686E+04 1.67341E+04
 -1        16-4.62410E+04-5.48941E+04-1.86738E+05 1.27839E-08 2.74444E+04-3.70237E-08
 -1        17-5.07168E+04-5.92321E+04-1.97319E+05-1.13599E+03 2.16686E+04-1.67341E+04
 -1        18-2.27688E+04-2.10507E+04-9.85916E+04-4.39798E+03 1.75433E+02-1.79466E+04
 -1        19 1.12122E-07 1.18709E-07 3.89827E-07-4.29469E+03-1.55420E+04 5.75637E-08
 -1        20 2.27688E+04 2.10507E+04 9.85916E+04-4.39798E+03 1.75433E+02 1.79466E+04
 -1        21 4.86774E+03-1.45377E+04 1.85026E+03-6.77537E+02 4.03746E+03-2.29375E+03
 -1        22 6.10622E+03-1.45310E+03 1.76530E+03-7.94626E-09-7.10476E+02 2.12899E-08
 -1        23 4.86774E+03-1.45377E+04 1.85026E+03 6.77537E+02 4.03746E+03 2.29375E+03
 -1        24-8.18056E+02-1.20881E+04-9.54964E+02 6.77770E+03 9.47218E+03-1.86868E+02
 -1        25-3.02089E-09-8.38440E-09-3.56908E-09 2.52370E+03 1.01590E+04 2.28192E-09
 -1        26 8.18056E+02 1.20881E+04 9.54964E+02 6.77770E+03 9.47218E+03 1.86868E+02
 -1        27-4.86774E+03 1.45377E+04-1.85026E+03 6.77537E+02 4.03746E+03-2.29375E+03
 -1        28-6.10622E+03 1.45310E+03-1.76530E+03 4.67207E-09-7.10476E+02 1.39080E-08
 -1        29-4.86774E+03 1.45377E+04-1.85026E+03-6.77537E+02 4.03746E+03 2.29375E+03
 -1        30 8.18056E+02 1.20881E+04 9.54964E+02-6.77770E+03 9.47218E+03-1.86868E+02
 -1        31-1.06093E-08 2.81545E-08 1.38543E-08-2.52370E+03 1.01590E+04 5.44401E-09
 -1        32-8.18056E+02-1.20881E+04-9.54964E+02-6.77770E+03 9.47218E+03 1.86868E+02
 -1        33 1.26459E+04 1.79607E+04 1.81299E+05 2.39617E+03 4.36120E+03-6.74837E+03
 -1        34-1.22447E+04-1.48070E+04 1.62757E+05-1.31826E+03-5.33786E+01 8.42149E+03
 -1        35 7.17316E+02-2.09051E+03 1.56240E+05-8.92158E+02 2.26872E+03-1.09521E+03
 -1        36-1.05990E+03 9.81381E+02 1.43360E+05 6.99775E+02 2.69992E+02 1.29183E+03
 -1        37 4.24307E+02 1.17583E+03 1.32238E+05 1.45629E+02 1.90363E+03-5.38450E+00
 -1        38-4.32913E+02-9.88559E+02 1.19716E+05-1.13288E+02 1.46110E+03 3.62178E+02
 -1        39 3.49889E+00-1.66316E+02 1.08000E+05-4.64790E+01 1.79116E+03 1.26429E+02
 -1        40 5.79411E+00 5.70546E+01 9.60034E+04 9.08568E+01 1.49623E+03 2.33875E+02
 -1        41-1.61014E+01 1.22846E+02 8.39977E+04-4.10150E+01 1.76838E+03 1.29184E+02
 -1        42 4.65154E+01 3.81644E+02 7.20649E+04-2.22743E+02 1.62381E+03 2.03500E+02
 -1        43 1.92028E+01-4.89495E+02 5.99972E+04 2.57940E+02 1.70511E+03 2.10780E+02
 -1        44 2.16613E+02-9.44513E+02 4.77174E+04 4.85035E+02 5.94938E+02 3.64956E+02
 -1        45-3.63485E+02 1.17388E+03 3.61258E+04-6.71809E+02 2.68358E+03-1.76641E+02
 -1        46-6.58296E+02 7.01899E+03 2.42056E+04-2.80844E+03 7.60150E+02-5.50235E+01
 -1        47 1.85333E+03-8.01401E+03 1.28434E+04 3.43114E+03 2.01019E+03 1.60940E+03
 -1        48 1.85333E+03-8.01401E+03 1.28434E+04-3.43114E+03 2.01019E+03-1.60940E+03
 -1        49-6.58296E+02 7.01899E+03 2.42056E+04 2.80844E+03 7.60150E+02 5.50235E+01
 -1        50-3.63485E+02 1.17388E+03 3.61258E+04 6.71809E+02 2.68358E+03 1.76641E+02
 -1        51 2.16613E+02-9.44513E+02 4.77174E+04-4.85035E+02 5.94938E+02-3.64956E+02
 -1        52 1.92028E+01-4.89495E+02 5.99972E+04-2.57940E+02 1.70511E+03-2.10780E+02
 -1        53 4.65154E+01 3.81644E+02 7.20649E+04 2.22743E+02 1.62381E+03-2.03500E+02
 -1        54-1.61014E+01 1.22846E+02 8.39977E+04 4.10150E+01 1.76838E+03-1.29184E+02
 -1        55 5.79411E+00 5.70546E+01 9.60034E+04-9.08568E+01 1.49623E+03-2.33875E+02
 -1        56 3.49889E+00-1.66316E+02 1.08000E+05 4.64790E+01 1.79116E+03-1.26429E+02
 -1        57-4.32913E+02-9.88559E+02 1.19716E+05 1.13288E+02 1.46110E+03-3.62178E+02
 -1        58 4.24307E+02 1.17583E+03 1.32238E+05-1.45629E+02 1.90363E+03 5.38450E+00
 -1        59-1.05990E+03 9.81381E+02 1.43360E+05-6.99775E+02 2.69992E+02-1.29183E+03
 -1        60 7.17316E+02-2.09051E+03 1.56240E+05 8.92158E+02 2.26872E+03 1.09521E+03
 -1        61-1.22447E+04-1.48070E+04 1.62757E+05 1.31826E+03-5.33786E+01-8.42149E+03
 -1        62 1.26459E+04 1.79607E+04 1.81299E+05-2.39617E+03 4.36120E+03 6.74837E+03
 -1        63-1.26459E+04-1.79607E+04-1.81299E+05 2.39617E+03 4.36120E+03 6.74837E+03
 -1        64 1.22447E+04 1.48070E+04-1.62757E+05-1.31826E+03-5.33786E+01-8.42149E+03
 -1        65-7.17316E+02 2.09051E+03-1.56240E+05-8.92158E+02 2.26872E+03 1.09521E+03
 -1        66 1.05990E+03-9.81381E+02-1.43360E+05 6.99775E+02 2.69992E+02-1.29183E+03
 -1        67-4.24307E+02-1.17583E+03-1.32238E+05 1.45629E+02 1.90363E+03 5.38450E+00
 -1        68 4.32913E+02 9.88559E+02-1.19716E+05-1.13288E+02 1.46110E+03-3.62178E+02
 -1        69-3.49889E+00 1.66316E+02-1.08000E+05-4.64790E+01 1.79116E+03-1.26429E+02
 -1        70-5.79411E+00-5.70546E+01-9.60034E+04 9.08568E+01 1.49623E+03-2.33875E+02
 -1        71 1.61014E+01-1.22846E+02-8.39977E+04-4.10150E+01 1.76838E+03-1.29184E+02
 -1        72-4.65154E+01-3.81644E+02-7.20649E+04-2.22743E+02 1.62381E+03-2.03500E+02
 -1        73-1.92028E+01 4.89495E+02-5.99972E+04 2.57940E+02 1.70511E+03-2.10780E+02
 -1        74-2.16613E+02 9.44513E+02-4.77174E+04 4.85035E+02 5.94938E+02-3.64956E+02
 -1        75 3.63485E+02-1.17388E+03-3.61258E+04-6.71809E+02 2.68358E+03 1.76641E+02
 -1        76 6.58296E+02-7.01899E+03-2.42056E+04-2.80844E+03 7.60150E+02 5.50235E+01
 -1        77-1.85333E+03 8.01401E+03-1.28434E+04 3.43114E+03 2.01019E+03-1.60940E+03
 -1        78-1.26459E+04-1.79607E+04-1.81299E+05-2.39617E+03 4.36120E+03-6.74837E+03
 -1        79 1.22447E+04 1.48070E+04-1.62757E+05 1.31826E+03-5.33786E+01 8.42149E+03
 -1        80-7.17316E+02 2.09051E+03-1.56240E+05 8.92158E+02 2.26872E+03-1.09521E+03
 -1        81 1.05990E+03-9.81381E+02-1.43360E+05-6.99775E+02 2.69992E+02 1.29183E+03
 -1        82-4.24307E+02-1.17583E+03-1.32238E+05-1.45629E+02 1.90363E+03-5.38450E+00
 -1        83 4.32913E+02 9.88559E+02-1.19716E+05 1.13288E+02 1.46110E+03 3.62178E+02
 -1        84-3.49889E+00 1.66316E+02-1.08000E+05 4.64790E+01 1.79116E+03 1.26429E+02
 -1        85-5.79411E+00-5.70546E+01-9.60034E+04-9.08568E+01 1.49623E+03 2.33875E+02
 -1        86 1.61014E+01-1.22846E+02-8.39977E+04 4.10150E+01 1.76838E+03 1.29184E+02
 -1        87-4.65154E+01-3.81644E+02-7.20649E+04 2.22743E+02 1.62381E+03 2.03500E+02
 -1        88-1.92028E+01 4.89495E+02-5.99972E+04-2.57940E+02 1.70511E+03 2.10780E+02
 -1        89-2.16613E+02 9.44513E+02-4.77174E+04-4.85035E+02 5.94938E+02 3.64956E+02
 -1        90 3.63485E+02-1.17388E+03-3.61258E+04 6.71809E+02 2.68358E+03-1.76641E+02
 -1        91 6.58296E+02-7.01899E+03-2.42056E+04 2.80844E+03 7.60150E+02-5.50235E+01
 -1        92-1.85333E+03 8.01401E+03-1.28434E+04-3.43114E+03 2.01019E+03 1.60940E+03
 -1        93 1.83810E+04 1.69383E+04 8.80779E+04-3.88172E-09 1.18241E+04-1.93766E-08
 -1        94 2.85199E-08 4.72792E-08 1.82583E-07-9.29408E+02-9.66912E+03 3.15061E-08
 -1        95 2.11003E-10 1.80989E-10 1.03682E-09-3.02180E-10-3.79621E+03 5.46929E-09
 -1        96-2.79697E-08-4.68190E-08-1.80067E-07 9.29408E+02-9.66912E+03 3.13194E-08
 -1        97-1.83810E+04-1.69383E+04-8.80779E+04 3.52679E-09 1.18241E+04-1.57809E-08
 -1        98-2.70265E+02-1.44984E+03-8.95813E+02-2.39174E-09 2.52734E+03 1.11039E-08
 -1        99-9.15179E-09 1.62364E-08 5.99698E-09-2.56166E+03 7.96206E+03 3.66458E-09
 -1       100 4.34284E-11 2.04298E-08 6.15375E-09-1.82945E-09 5.76516E+03 1.51385E-09
 -1       101 2.38060E-09 1.40784E-08 5.29940E-09 2.56166E+03 7.96206E+03 1.71212E-09
 -1       102 2.70265E+02 1.44984E+03 8.95813E+02-1.07457E-09 2.52734E+03 8.00890E-09
 -1       103 1.40334E+04 1.85864E+04 1.84800E+05-8.78401E-09 8.38636E+03-8.00378E-09
 -1       104-1.06209E+04-1.38900E+04 1.66754E+05 2.66411E+02-1.56856E+03-3.96217E+03
 -1       105-8.99710E+03-1.29730E+04 1.70751E+05 4.98176E-10-3.08375E+03 1.16624E-08
 -1       106-1.06209E+04-1.38900E+04 1.66754E+05-2.66411E+02-1.56856E+03 3.96217E+03
 -1       107-5.03288E+01-3.37464E+03 1.53766E+05 1.69524E-09 1.67278E+03 8.40274E-09
 -1       108-2.12688E+02 1.70488E+03 1.44759E+05-4.34613E+01 2.76761E+02-8.21572E+02
 -1       109 6.34528E+02 2.42838E+03 1.46159E+05-1.77417E-09 2.83530E+02 1.56922E-08
 -1       110-2.12688E+02 1.70488E+03 1.44759E+05 4.34613E+01 2.76761E+02 8.21572E+02
 -1       111 5.10573E+02 1.12665E+03 1.31941E+05-6.71093E-10 1.37851E+03 1.23027E-08
 -1       112-3.89890E+02-9.35599E+02 1.19874E+05-3.05731E+01 1.36326E+03-2.84227E+02
 -1       113-3.46867E+02-8.82640E+02 1.20032E+05 1.08972E-10 1.26542E+03 1.16386E-08
 -1       114-3.89890E+02-9.35599E+02 1.19874E+05 3.05731E+01 1.36326E+03 2.84227E+02
 -1       115-4.54918E+01-2.10204E+02 1.07920E+05 5.34495E-10 1.34491E+03 1.01616E-08
 -1       116 4.76712E+01 1.27170E+02 9.60452E+04 5.72246E+00 1.37850E+03-1.98562E+02
 -1       117 8.95482E+01 1.97285E+02 9.60869E+04 1.84071E-09 1.26078E+03 1.06430E-08
 -1       118 4.76712E+01 1.27170E+02 9.60452E+04-5.72246E+00 1.37850E+03 1.98562E+02
 -1       119-1.85186E+01 2.29110E+01 8.39818E+04 1.14754E-09 1.30479E+03 9.55666E-09
 -1       120-1.60963E+01 1.48934E+02 7.20089E+04 1.51104E+00 1.47097E+03-1.90642E+02
 -1       121-7.87080E+01-8.37763E+01 7.19529E+04-2.54986E-09 1.31814E+03 1.20049E-08
 -1       122-1.60963E+01 1.48934E+02 7.20089E+04-1.51104E+00 1.47097E+03 1.90642E+02
 -1       123 1.10184E+02 1.11919E+02 6.01374E+04-2.72013E-09 1.19194E+03 1.42043E-08
 -1       124 2.55388E+02-3.66534E+02 4.77870E+04 2.81745E+02 9.66558E+02-2.75447E+02
 -1       125 2.94162E+02 2.11445E+02 4.78566E+04-2.16255E-09 1.33818E+03 2.00253E-08
 -1       126 2.55388E+02-3.66534E+02 4.77870E+04-2.81745E+02 9.66558E+02 2.75447E+02
 -1       127-4.17449E+02-6.04357E+02 3.57047E+04-4.34056E-10 1.65661E+03 2.56702E-08
 -1       128-7.94475E+02 3.87384E+03 2.43590E+04 3.57049E+01 8.16542E+02 1.69093E+02
 -1       129-9.30655E+02 7.28697E+02 2.45124E+04 1.30217E-09 8.72934E+02 2.37893E-08
 -1       130-7.94475E+02 3.87384E+03 2.43590E+04-3.57049E+01 8.16542E+02-1.69093E+02
 -1       131 2.71620E+03 6.88281E+02 1.33509E+04-3.92220E-09-3.13723E+02 2.16912E-08
 -1       132-3.65881E-08-5.05588E-08-3.69721E-07 2.66982E+03 3.74382E+03 1.73708E-08
 -1       133-4.69248E+03-3.69670E+03 8.25542E+04-1.08583E+03 7.25765E+03 4.23121E+03
 -1       134 2.63271E-08 3.91265E-09-3.38783E-07-8.53405E+02 1.45687E+04-6.56634E-09
 -1       135 4.69248E+03 3.69670E+03-8.25542E+04-1.08583E+03 7.25765E+03-4.23121E+03
 -1       136 7.25049E-09-2.72030E-09-3.07122E-07-8.65022E+02 1.03851E+04 1.96389E-09
 -1       137-1.28819E+03-1.28734E+03 7.09323E+04 7.29988E+02 6.27817E+03 6.02406E+02
 -1       138-5.40085E-09 1.23578E-09-2.87402E-07 7.60201E+02 1.22863E+04-3.60139E-11
 -1       139 1.28819E+03 1.28734E+03-7.09323E+04 7.29988E+02 6.27817E+03-6.02406E+02
 -1       140-3.09268E-09-1.66756E-09-2.58480E-07 1.84941E+02 1.08837E+04 1.79926E-09
 -1       141-1.28676E+02-3.00146E+02 5.99611E+04-1.20443E+02 6.35118E+03 1.34901E+02
 -1       142 3.09386E-09-1.83445E-09-2.31243E-07-1.27598E+02 1.12413E+04 8.10882E-10
 -1       143 1.28676E+02 3.00146E+02-5.99611E+04-1.20443E+02 6.35118E+03-1.34901E+02
 -1       144 1.69621E-10-2.80826E-09-2.06343E-07-4.99796E+01 1.09690E+04 1.69672E-09
 -1       145-3.96713E+01-5.32974E+01 4.79649E+04 6.97073E+01 6.35681E+03 7.32378E+01
 -1       146-8.44189E-10-1.71961E-09-1.80130E-07 4.85578E+01 1.12174E+04 4.73278E-10
 -1       147 3.96713E+01 5.32974E+01-4.79649E+04 6.97073E+01 6.35681E+03-7.32378E+01
 -1       148 6.11386E-10-4.46335E-10-1.57417E-07-2.32808E+00 1.09903E+04 6.54708E-10
 -1       149 3.93734E+01 1.66446E+02 3.59944E+04-1.29650E+02 6.36938E+03 5.11736E+01
 -1       150 3.45594E-10-2.54695E-09-1.36198E-07-3.65563E+01 1.11149E+04 1.37968E-09
 -1       151-3.93734E+01-1.66446E+02-3.59944E+04-1.29650E+02 6.36938E+03-5.11736E+01
 -1       152 1.03000E-09-8.13017E-10-1.08267E-07 5.94921E+01 1.11127E+04 3.72020E-09
 -1       153 2.78289E+02 2.11630E+02 2.42408E+04 2.99487E+02 6.18572E+03 1.52767E+02
 -1       154-1.31229E-09-9.69408E-10-8.45188E-08 1.13939E+02 1.17765E+04 1.04280E-09
 -1       155-2.78289E+02-2.11630E+02-2.42408E+04 2.99487E+02 6.18572E+03-1.52767E+02
 -1       156-2.43051E-09-4.78019E-09-6.19747E-08-2.19575E+02 1.02344E+04 3.05704E-10
 -1       157-1.83428E+02 2.79325E+03 1.12838E+04-1.61153E+03 6.11474E+03-1.68304E+02
 -1       158 3.20091E-09-3.98848E-09-2.99613E-08-4.14626E+02 1.14693E+04 3.78009E-10
 -1       159 1.83428E+02-2.79325E+03-1.12838E+04-1.61153E+03 6.11474E+03 1.68304E+02
 -1       160 1.22918E-09-5.38353E-09-1.41320E-08 1.12236E+03 1.26640E+04-3.13662E-10
 -1       161-1.40334E+04-1.85864E+04-1.84800E+05 9.10597E-09 8.38636E+03 2.09957E-09
 -1       162 1.06209E+04 1.38900E+04-1.66754E+05-2.66411E+02-1.56856E+03-3.96217E+03
 -1       163 8.99710E+03 1.29730E+04-1.70751E+05 2.56932E-11-3.08375E+03 2.35716E-08
 -1       164 1.06209E+04 1.38900E+04-1.66754E+05 2.66411E+02-1.56856E+03 3.96217E+03
 -1       165 5.03288E+01 3.37464E+03-1.53766E+05-1.63385E-09 1.67278E+03 1.93751E-08
 -1       166 2.12688E+02-1.70488E+03-1.44759E+05 4.34613E+01 2.76761E+02-8.21572E+02
 -1       167-6.34528E+02-2.42838E+03-1.46159E+05 1.65480E-09 2.83530E+02 2.62624E-08
 -1       168 2.12688E+02-1.70488E+03-1.44759E+05-4.34613E+01 2.76761E+02 8.21572E+02
 -1       169-5.10573E+02-1.12665E+03-1.31941E+05 8.35911E-10 1.37851E+03 2.40011E-08
 -1       170 3.89890E+02 9.35599E+02-1.19874E+05 3.05731E+01 1.36326E+03-2.84227E+02
 -1       171 3.46867E+02 8.82640E+02-1.20032E+05 4.38231E-10 1.26542E+03 2.52807E-08
 -1       172 3.89890E+02 9.35599E+02-1.19874E+05-3.05731E+01 1.36326E+03 2.84227E+02
 -1       173 4.54918E+01 2.10204E+02-1.07920E+05-2.24891E-09 1.34491E+03 2.44931E-08
 -1       174-4.76712E+01-1.27170E+02-9.60452E+04-5.72246E+00 1.37850E+03-1.98562E+02
 -1       175-8.95482E+01-1.97285E+02-9.60869E+04-5.60538E-09 1.26078E+03 2.41474E-08
 -1       176-4.76712E+01-1.27170E+02-9.60452E+04 5.72246E+00 1.37850E+03 1.98562E+02
 -1       177 1.85186E+01-2.29110E+01-8.39818E+04-2.44801E-09 1.30479E+03 2.23032E-08
 -1       178 1.60963E+01-1.48934E+02-7.20089E+04-1.51104E+00 1.47097E+03-1.90642E+02
 -1       179 7.87080E+01 8.37763E+01-7.19529E+04 2.45443E-09 1.31814E+03 2.21052E-08
 -1       180 1.60963E+01-1.48934E+02-7.20089E+04 1.51104E+00 1.47097E+03 1.90642E+02
 -1       181-1.10184E+02-1.11919E+02-6.01374E+04 5.87363E-10 1.19194E+03 1.85303E-08
 -1       182-2.55388E+02 3.66534E+02-4.77870E+04-2.81745E+02 9.66558E+02-2.75447E+02
 -1       183-2.94162E+02-2.11445E+02-4.78566E+04-1.60475E-09 1.33818E+03 1.40066E-08
 -1       184-2.55388E+02 3.66534E+02-4.77870E+04 2.81745E+02 9.66558E+02 2.75447E+02
 -1       185 4.17449E+02 6.04357E+02-3.57047E+04 1.71258E-09 1.65661E+03 1.20420E-08
 -1       186 7.94475E+02-3.87384E+03-2.43590E+04-3.57049E+01 8.16542E+02 1.69093E+02
 -1       187 9.30655E+02-7.28697E+02-2.45124E+04 3.52736E-09 8.72934E+02 9.28088E-09
 -1       188 7.94475E+02-3.87384E+03-2.43590E+04 3.57049E+01 8.16542E+02-1.69093E+02
 -1       189-2.71620E+03-6.88281E+02-1.33509E+04 3.70710E-09-3.13723E+02 1.02526E-08
 -1       190 3.67845E-08 5.06416E-08 3.72265E-07-2.66982E+03 3.74382E+03 1.74193E-08
 -1       191 4.69248E+03 3.69670E+03-8.25542E+04 1.08583E+03 7.25765E+03 4.23121E+03
 -1       192-2.61236E-08-4.36194E-09 3.41022E-07 8.53405E+02 1.45687E+04-7.07850E-09
 -1       193-4.69248E+03-3.69670E+03 8.25542E+04 1.08583E+03 7.25765E+03-4.23121E+03
 -1       194-7.13374E-09 3.82988E-09 3.10364E-07 8.65022E+02 1.03851E+04 1.68109E-09
 -1       195 1.28819E+03 1.28734E+03-7.09323E+04-7.29988E+02 6.27817E+03 6.02406E+02
 -1       196 4.00669E-09 3.74826E-10 2.89978E-07-7.60201E+02 1.22863E+04-5.91776E-10
 -1       197-1.28819E+03-1.28734E+03 7.09323E+04-7.29988E+02 6.27817E+03-6.02406E+02
 -1       198 2.49794E-09 1.88476E-09 2.60162E-07-1.84941E+02 1.08837E+04 1.80555E-09
 -1       199 1.28676E+02 3.00146E+02-5.99611E+04 1.20443E+02 6.35118E+03 1.34901E+02
 -1       200-1.27604E-09 1.64664E-09 2.33906E-07 1.27598E+02 1.12413E+04 9.72719E-10
 -1       201-1.28676E+02-3.00146E+02 5.99611E+04 1.20443E+02 6.35118E+03-1.34901E+02
 -1       202-1.47386E-09 3.59734E-10 2.10292E-07 4.99796E+01 1.09690E+04 2.75212E-09
 -1       203 3.96713E+01 5.32974E+01-4.79649E+04-6.97073E+01 6.35681E+03 7.32378E+01
 -1       204-2.09025E-09 1.56443E-09 1.86129E-07-4.85578E+01 1.12174E+04 5.23073E-10
 -1       205-3.96713E+01-5.32974E+01 4.79649E+04-6.97073E+01 6.35681E+03-7.32378E+01
 -1       206-6.23039E-10-8.11369E-10 1.60770E-07 2.32808E+00 1.09903E+04 1.44794E-10
 -1       207-3.93734E+01-1.66446E+02-3.59944E+04 1.29650E+02 6.36938E+03 5.11736E+01
 -1       208 1.86517E-10-2.48282E-09 1.36667E-07 3.65563E+01 1.11149E+04 1.43231E-09
 -1       209 3.93734E+01 1.66446E+02 3.59944E+04 1.29650E+02 6.36938E+03-5.11736E+01
 -1       210-4.65464E-09-4.92358E-09 1.12322E-07-5.94921E+01 1.11127E+04 8.82110E-10
 -1       211-2.78289E+02-2.11630E+02-2.42408E+04-2.99487E+02 6.18572E+03 1.52767E+02
 -1       212-8.31960E-09-6.81973E-09 8.91963E-08-1.13939E+02 1.17765E+04-1.88894E-09
 -1       213 2.78289E+02 2.11630E+02 2.42408E+04-2.99487E+02 6.18572E+03-1.52767E+02
 -1       214-9.26775E-10 3.28237E-09 6.63041E-08 2.19575E+02 1.02344E+04 1.80654E-09
 -1       215 1.83428E+02-2.79325E+03-1.12838E+04 1.61153E+03 6.11474E+03-1.68304E+02
 -1       216 9.81385E-09 5.08453E-09 4.47160E-08 4.14626E+02 1.14693E+04 2.69665E-09
 -1       217-1.83428E+02 2.79325E+03 1.12838E+04 1.61153E+03 6.11474E+03 1.68304E+02
 -1       218 2.48338E-09 1.41740E-08 3.09747E-08-1.12236E+03 1.26640E+04 1.07786E-09
 -1       219-1.22782E-11 3.77440E-10 1.42609E-09-4.72710E-10 7.50765E+03 2.03045E-08
 -1       220-2.96249E+03-2.55528E+03 8.66812E+04-2.56750E-09 4.74187E+03 1.66053E-08
 -1       221-3.40606E-09 1.90357E-09 1.75117E-07-1.97486E+02 1.35681E+04 6.92897E-09
 -1       222-7.04858E-12 6.70070E-10 1.65369E-09-4.09102E-10 1.25675E+04 2.07827E-08
 -1       223 3.50087E-09-1.45792E-09-1.72344E-07 1.97486E+02 1.35681E+04 7.03133E-09
 -1       224 2.96249E+03 2.55528E+03-8.66812E+04 2.42039E-09 4.74187E+03 2.17944E-08
 -1       225 1.80535E-10 1.71667E-10 1.32582E-09 2.26919E-10 9.67246E+03 1.32852E-08
 -1       226-5.06383E+02-7.49501E+02 7.22992E+04 2.78845E-10 5.72135E+03 1.51694E-08
 -1       227-2.51094E-09-1.37112E-09 1.43980E-07-1.07714E+02 1.17228E+04 6.74723E-09
 -1       228 2.64450E-10-5.94014E-12 1.31661E-09 2.98691E-10 1.11592E+04 1.39352E-08
 -1       229 2.07845E-09 2.17028E-09-1.41376E-07 1.07714E+02 1.17228E+04 6.87410E-09
 -1       230 5.06383E+02 7.49501E+02-7.22992E+04-3.98188E-11 5.72135E+03 1.97431E-08
 -1       231-4.35747E-10-1.13261E-10 1.18928E-09 2.52577E-10 9.83323E+03 1.10334E-08
 -1       232-4.76377E+01-1.58701E+02 6.01571E+04 2.71633E-10 5.64834E+03 1.27814E-08
 -1       233-1.89772E-10 6.55746E-10 1.17314E-07-1.91393E+00 1.06363E+04 6.97131E-09
 -1       234-7.09150E-10 4.51550E-10 5.66160E-10 7.87068E-10 1.00313E+04 1.29949E-08
 -1       235 3.89534E-10-2.98087E-10-1.15417E-07 1.91393E+00 1.06363E+04 6.91539E-09
 -1       236 4.76377E+01 1.58701E+02-6.01571E+04 7.89051E-10 5.64834E+03 1.86732E-08
 -1       237-3.22089E-11-1.25482E-11 2.34581E-09 3.82460E-10 9.89395E+03 1.14769E-08
 -1       238-1.61410E+01-2.16277E+01 4.79839E+04 7.00748E-10 5.64271E+03 1.10459E-08
 -1       239-1.90035E-10 1.53982E-09 9.53355E-08-5.54580E+00 1.06210E+04 5.34260E-09
 -1       240 1.01795E-09 8.51102E-10 4.22028E-09 8.94396E-13 1.00246E+04 1.04063E-08
 -1       241-2.59224E-10-7.66317E-10-8.81162E-08 5.54580E+00 1.06210E+04 5.56187E-09
 -1       242 1.61410E+01 2.16277E+01-4.79839E+04-2.58219E-09 5.64271E+03 1.67556E-08
 -1       243-1.03437E-11-4.28386E-10 1.21008E-09-4.04061E-10 9.93561E+03 9.74587E-09
 -1       244 1.16861E+01-3.51755E+00 3.59921E+04-1.88635E-09 5.63014E+03 1.23032E-08
 -1       245-1.60291E-10-6.73595E-10 6.87272E-08 1.52447E+01 1.05285E+04 6.62532E-09
 -1       246-1.17712E-09-1.38595E-09-7.00027E-11-1.20992E-09 9.94215E+03 1.18327E-08
 -1       247-7.50770E-10-3.22725E-09-6.85626E-08-1.52447E+01 1.05285E+04 6.61341E-09
 -1       248-1.16861E+01 3.51755E+00-3.59921E+04 6.28713E-10 5.63014E+03 1.65845E-08
 -1       249 1.17124E-09-3.12181E-09 1.87802E-09 1.67287E-09 9.98930E+03 1.18954E-08
 -1       250 4.03375E+01 2.08435E+02 2.39692E+04 3.23473E-09 5.81380E+03 1.52333E-08
 -1       251-3.42042E-09-7.86127E-09 4.63682E-08-9.32737E+01 1.10330E+04 4.91923E-09
 -1       252 2.51221E-09-7.34580E-09 3.90315E-09 3.52969E-09 1.02894E+04 1.10688E-08
 -1       253 1.11672E-09-3.37911E-09-4.01263E-08 9.32737E+01 1.10330E+04 5.72653E-09
 -1       254-4.03375E+01-2.08435E+02-2.39692E+04-1.58872E-09 5.81380E+03 1.28515E-08
 -1       255 8.97245E-10-2.90441E-09 5.27416E-09 3.19244E-09 9.42447E+03 8.70407E-09
 -1       256 2.69975E+02 6.94812E+02 1.23557E+04-4.98048E-10 5.88477E+03 1.63023E-08
 -1       257 7.29671E-09 1.17063E-09 2.40309E-08 4.26432E+02 1.11830E+04 5.48853E-09
 -1       258 4.93799E-10-3.19119E-09 2.13452E-09 2.43990E-09 1.08966E+04 8.96955E-09
 -1       259-2.95529E-10-3.81374E-09-1.45190E-08-4.26432E+02 1.11830E+04 5.01838E-09
 -1       260-2.69975E+02-6.94812E+02-1.23557E+04 5.35275E-09 5.88477E+03 9.20241E-09
 -1       261 7.64203E-10 6.38073E-09 2.67045E-09-4.79076E-10 9.63854E+03 7.03648E-09
 -3
    1PSTEP                         3           1           2          
    1PGM                1.000000E+00                                  
    1PGK                6.770787E+03                                  
    1PHID                         -1                                  
    1PSUBC                         0                                  
    1PMODE                         1                                  
  100CL  102 1.30960E+01         261                     2    2MODAL      1
 -4  DISP        4    1
 -5  D1          1    2    1    0
 -5  D2          1    2    2    0
 -5  D3          1    2    3    0
 -5  ALL         1    2    0    0    1ALL
 -1         1 0.00000E+00 0.00000E+00 0.00000E+00
 -1         2 0.00000E+00 0.00000E+00 0.00000E+00
 -1         3 0.00000E+00 0.00000E+00 0.00000E+00
 -1         4 0.00000E+00 0.00000E+00 0.00000E+00
 -1         5-6.50937E-03-8.56780E-08-5.55963E-04
 -1         6-6.50937E-03 8.55996E-08 5.55963E-04
 -1         7-6.50937E-03-8.56727E-08 5.55963E-04
 -1         8-6.50937E-03 8.56006E-08-5.55963E-04
 -1         9 0.00000E+00 0.00000E+00 0.00000E+00
 -1        10 0.00000E+00 0.00000E+00 0.00000E+00
 -1        11 0.00000E+00 0.00000E+00 0.00000E+00
 -1        12 0.00000E+00 0.00000E+00 0.00000E+00
 -1        13 0.00000E+00 0.00000E+00 0.00000E+00
 -1        14 0.00000E+00 0.00000E+00 0.00000E+00
 -1        15 0.00000E+00 0.00000E+00 0.00000E+00
 -1        16 0.00000E+00 0.00000E+00 0.00000E+00
 -1        17 0.00000E+00 0.00000E+00 0.00000E+00
 -1        18 0.00000E+00 0.00000E+00 0.00000E+00
 -1        19 0.00000E+00 0.00000E+00 0.00000E+00
 -1        20 0.00000E+00 0.00000E+00 0.00000E+00
 -1        21-6.50936E-03-2.59065E-08-2.77952E-04
 -1        22-6.50931E-03-3.86396E-11-3.05873E-11
 -1        23-6.50936E-03 2.58287E-08 2.77952E-04
 -1        24-6.50948E-03 7.75698E-08 5.56058E-04
 -1        25-6.50959E-03-3.60577E-11 5.56109E-04
 -1        26-6.50948E-03-7.76423E-08 5.56058E-04
 -1        27-6.50936E-03-2.59025E-08 2.77952E-04
 -1        28-6.50931E-03-3.63564E-11 5.05589E-12
 -1        29-6.50936E-03 2.58303E-08-2.77952E-04
 -1        30-6.50948E-03 7.75701E-08-5.56058E-04
 -1        31-6.50959E-03-3.73147E-11-5.56109E-04
 -1        32-6.50948E-03-7.76460E-08-5.56058E-04
 -1        33-4.33237E-05 3.13398E-05 7.84601E-05
 -1        34-1.57954E-04 2.95062E-05 1.56649E-04
 -1        35-3.61356E-04 3.00866E-05 2.27101E-04
 -1        36-6.26022E-04 2.61793E-05 2.90133E-04
 -1        37-9.53975E-04 2.32577E-05 3.45065E-04
 -1        38-1.33068E-03 1.99051E-05 3.93347E-04
 -1        39-1.75309E-03 1.68961E-05 4.34150E-04
 -1        40-2.21170E-03 1.38129E-05 4.68184E-04
 -1        41-2.70107E-03 1.10084E-05 4.95563E-04
 -1        42-3.21392E-03 8.39153E-06 5.16979E-04
 -1        43-3.74484E-03 6.08037E-06 5.32823E-04
 -1        44-4.28833E-03 4.06018E-06 5.43853E-04
 -1        45-4.83984E-03 2.41731E-06 5.50746E-04
 -1        46-5.39563E-03 1.17230E-06 5.54433E-04
 -1        47-5.95269E-03 4.21446E-07 5.55814E-04
 -1        48-5.95269E-03-4.21496E-07-5.55814E-04
 -1        49-5.39563E-03-1.17233E-06-5.54434E-04
 -1        50-4.83984E-03-2.41732E-06-5.50746E-04
 -1        51-4.28833E-03-4.06017E-06-5.43853E-04
 -1        52-3.74484E-03-6.08034E-06-5.32823E-04
 -1        53-3.21392E-03-8.39150E-06-5.16979E-04
 -1        54-2.70107E-03-1.10084E-05-4.95563E-04
 -1        55-2.21170E-03-1.38129E-05-4.68184E-04
 -1        56-1.75309E-03-1.68961E-05-4.34150E-04
 -1        57-1.33068E-03-1.99050E-05-3.93347E-04
 -1        58-9.53975E-04-2.32576E-05-3.45065E-04
 -1        59-6.26022E-04-2.61792E-05-2.90133E-04
 -1        60-3.61356E-04-3.00866E-05-2.27101E-04
 -1        61-1.57954E-04-2.95062E-05-1.56649E-04
 -1        62-4.33237E-05-3.13398E-05-7.84601E-05
 -1        63-4.33237E-05-3.13398E-05 7.84601E-05
 -1        64-1.57954E-04-2.95062E-05 1.56649E-04
 -1        65-3.61356E-04-3.00866E-05 2.27101E-04
 -1        66-6.26022E-04-2.61792E-05 2.90133E-04
 -1        67-9.53975E-04-2.32576E-05 3.45065E-04
 -1        68-1.33067E-03-1.99051E-05 3.93347E-04
 -1        69-1.75309E-03-1.68961E-05 4.34150E-04
 -1        70-2.21170E-03-1.38129E-05 4.68184E-04
 -1        71-2.70107E-03-1.10084E-05 4.95563E-04
 -1        72-3.21392E-03-8.39151E-06 5.16979E-04
 -1        73-3.74484E-03-6.08035E-06 5.32823E-04
 -1        74-4.28833E-03-4.06017E-06 5.43853E-04
 -1        75-4.83984E-03-2.41732E-06 5.50746E-04
 -1        76-5.39563E-03-1.17233E-06 5.54434E-04
 -1        77-5.95269E-03-4.21494E-07 5.55814E-04
 -1        78-4.33237E-05 3.13398E-05-7.84601E-05
 -1        79-1.57954E-04 2.95062E-05-1.56649E-04
 -1        80-3.61356E-04 3.00866E-05-2.27101E-04
 -1        81-6.26022E-04 2.61793E-05-2.90133E-04
 -1        82-9.53975E-04 2.32577E-05-3.45065E-04
 -1        83-1.33067E-03 1.99051E-05-3.93347E-04
 -1        84-1.75309E-03 1.68961E-05-4.34150E-04
 -1        85-2.21170E-03 1.38130E-05-4.68184E-04
 -1        86-2.70107E-03 1.10084E-05-4.95563E-04
 -1        87-3.21392E-03 8.39155E-06-5.16979E-04
 -1        88-3.74484E-03 6.08038E-06-5.32823E-04
 -1        89-4.28833E-03 4.06018E-06-5.43853E-04
 -1        90-4.83984E-03 2.41732E-06-5.50746E-04
 -1        91-5.39563E-03 1.17231E-06-5.54434E-04
 -1        92-5.95269E-03 4.21447E-07-5.55814E-04
 -1        93 0.00000E+00 0.00000E+00 0.00000E+00
 -1        94 0.00000E+00 0.00000E+00 0.00000E+00
 -1        95 0.00000E+00 0.00000E+00 0.00000E+00
 -1        96 0.00000E+00 0.00000E+00 0.00000E+00
 -1        97 0.00000E+00 0.00000E+00 0.00000E+00
 -1        98-6.50942E-03-3.79332E-11-2.00839E-11
 -1        99-6.50961E-03-3.72810E-11-2.78042E-04
 -1       100-6.50958E-03-3.65673E-11-1.15192E-11
 -1       101-6.50961E-03-3.59244E-11 2.78042E-04
 -1       102-6.50942E-03-3.61160E-11-3.78101E-12
 -1       103-2.63519E-05 3.74663E-12 2.34054E-12
 -1       104-1.51698E-04-1.50721E-05-7.76001E-05
 -1       105-1.52860E-04 7.74377E-12 4.15807E-12
 -1       106-1.51698E-04 1.50721E-05 7.76001E-05
 -1       107-3.49578E-04 1.14002E-11 5.38277E-12
 -1       108-6.20937E-04-1.30230E-05-1.43555E-04
 -1       109-6.19797E-04 1.58672E-11 5.75786E-12
 -1       110-6.20937E-04 1.30230E-05 1.43556E-04
 -1       111-9.45468E-04 1.94318E-11 4.76483E-12
 -1       112-1.32608E-03-9.97029E-06-1.95458E-04
 -1       113-1.32495E-03 2.05777E-11 4.62896E-12
 -1       114-1.32608E-03 9.97034E-06 1.95458E-04
 -1       115-1.74722E-03 2.06037E-11 6.42776E-12
 -1       116-2.20845E-03-6.89826E-06-2.32917E-04
 -1       117-2.20745E-03 2.13734E-11 7.12940E-12
 -1       118-2.20845E-03 6.89831E-06 2.32917E-04
 -1       119-2.69728E-03 2.17387E-11 4.72124E-12
 -1       120-3.21189E-03-4.19291E-06-2.57522E-04
 -1       121-3.21124E-03 1.77533E-11-2.33654E-13
 -1       122-3.21189E-03 4.19294E-06 2.57522E-04
 -1       123-3.74277E-03 1.15975E-11-6.83116E-12
 -1       124-4.28736E-03-2.02335E-06-2.71199E-04
 -1       125-4.28701E-03 5.25670E-12-1.40264E-11
 -1       126-4.28736E-03 2.02336E-06 2.71199E-04
 -1       127-4.83900E-03-2.35403E-12-2.10601E-11
 -1       128-5.39536E-03-5.81282E-07-2.76821E-04
 -1       129-5.39522E-03-1.24952E-11-2.66309E-11
 -1       130-5.39536E-03 5.81257E-07 2.76821E-04
 -1       131-5.95255E-03-2.47381E-11-2.95693E-11
 -1       132-6.19923E-05 4.71428E-13 7.71510E-05
 -1       133-1.76750E-04 1.39396E-05 1.56808E-04
 -1       134-1.81304E-04 2.65919E-12 1.58421E-04
 -1       135-1.76750E-04-1.39396E-05 1.56808E-04
 -1       136-3.83338E-04 5.77844E-12 2.27341E-04
 -1       137-6.40826E-04 1.32347E-05 2.91193E-04
 -1       138-6.46211E-04 1.04597E-11 2.90367E-04
 -1       139-6.40826E-04-1.32347E-05 2.91193E-04
 -1       140-9.71260E-04 1.43968E-11 3.45441E-04
 -1       141-1.34206E-03 9.91482E-06 3.94059E-04
 -1       142-1.34582E-03 1.54081E-11 3.93770E-04
 -1       143-1.34206E-03-9.91479E-06 3.94059E-04
 -1       144-1.76573E-03 1.31495E-11 4.34508E-04
 -1       145-2.21950E-03 6.92553E-06 4.68930E-04
 -1       146-2.22216E-03 1.19104E-11 4.68508E-04
 -1       147-2.21950E-03-6.92551E-06 4.68930E-04
 -1       148-2.70933E-03 1.31845E-11 4.95881E-04
 -1       149-3.21867E-03 4.20670E-06 5.17578E-04
 -1       150-3.22028E-03 1.50270E-11 5.17264E-04
 -1       151-3.21867E-03-4.20667E-06 5.17578E-04
 -1       152-3.74944E-03 1.27781E-11 5.33076E-04
 -1       153-4.29063E-03 2.04852E-06 5.44309E-04
 -1       154-4.29144E-03 5.23542E-12 5.44061E-04
 -1       155-4.29063E-03-2.04851E-06 5.44309E-04
 -1       156-4.84171E-03-3.30231E-12 5.50917E-04
 -1       157-5.39631E-03 6.09416E-07 5.54680E-04
 -1       158-5.39659E-03-1.25490E-11 5.54550E-04
 -1       159-5.39631E-03-6.09441E-07 5.54680E-04
 -1       160-5.95307E-03-2.47788E-11 5.55902E-04
 -1       161-2.63519E-05 4.90960E-12-3.05448E-12
 -1       162-1.51698E-04-1.50721E-05 7.76001E-05
 -1       163-1.52860E-04 8.53743E-12-4.55543E-12
 -1       164-1.51698E-04 1.50721E-05-7.76001E-05
 -1       165-3.49578E-04 1.29130E-11-3.91978E-12
 -1       166-6.20937E-04-1.30230E-05 1.43556E-04
 -1       167-6.19797E-04 1.58696E-11-2.52938E-12
 -1       168-6.20937E-04 1.30230E-05-1.43556E-04
 -1       169-9.45468E-04 1.78942E-11 1.58909E-14
 -1       170-1.32608E-03-9.97030E-06 1.95458E-04
 -1       171-1.32495E-03 1.76616E-11 3.63905E-12
 -1       172-1.32608E-03 9.97034E-06-1.95458E-04
 -1       173-1.74722E-03 1.62286E-11 5.91610E-12
 -1       174-2.20845E-03-6.89828E-06 2.32917E-04
 -1       175-2.20745E-03 1.66965E-11 6.60001E-12
 -1       176-2.20845E-03 6.89831E-06-2.32917E-04
 -1       177-2.69728E-03 1.85348E-11 7.16321E-12
 -1       178-3.21189E-03-4.19291E-06 2.57522E-04
 -1       179-3.21124E-03 1.93719E-11 8.83323E-12
 -1       180-3.21189E-03 4.19295E-06-2.57522E-04
 -1       181-3.74277E-03 1.59951E-11 1.06410E-11
 -1       182-4.28736E-03-2.02335E-06 2.71199E-04
 -1       183-4.28701E-03 8.96565E-12 1.02274E-11
 -1       184-4.28736E-03 2.02336E-06-2.71199E-04
 -1       185-4.83900E-03 4.96894E-13 8.87722E-12
 -1       186-5.39536E-03-5.81281E-07 2.76821E-04
 -1       187-5.39522E-03-1.08096E-11 7.63926E-12
 -1       188-5.39536E-03 5.81260E-07-2.76821E-04
 -1       189-5.95255E-03-2.38539E-11 6.05288E-12
 -1       190-6.19923E-05 6.22634E-12-7.71510E-05
 -1       191-1.76750E-04 1.39396E-05-1.56808E-04
 -1       192-1.81304E-04 1.31071E-11-1.58421E-04
 -1       193-1.76750E-04-1.39396E-05-1.56808E-04
 -1       194-3.83338E-04 1.84045E-11-2.27341E-04
 -1       195-6.40826E-04 1.32347E-05-2.91193E-04
 -1       196-6.46211E-04 2.17269E-11-2.90367E-04
 -1       197-6.40826E-04-1.32347E-05-2.91193E-04
 -1       198-9.71260E-04 2.29622E-11-3.45441E-04
 -1       199-1.34206E-03 9.91483E-06-3.94059E-04
 -1       200-1.34582E-03 2.27295E-11-3.93770E-04
 -1       201-1.34206E-03-9.91478E-06-3.94059E-04
 -1       202-1.76573E-03 2.30262E-11-4.34508E-04
 -1       203-2.21950E-03 6.92554E-06-4.68930E-04
 -1       204-2.22216E-03 2.62631E-11-4.68508E-04
 -1       205-2.21950E-03-6.92549E-06-4.68930E-04
 -1       206-2.70933E-03 2.84222E-11-4.95881E-04
 -1       207-3.21867E-03 4.20671E-06-5.17578E-04
 -1       208-3.22028E-03 2.53287E-11-5.17264E-04
 -1       209-3.21867E-03-4.20666E-06-5.17578E-04
 -1       210-3.74944E-03 1.83921E-11-5.33076E-04
 -1       211-4.29063E-03 2.04853E-06-5.44309E-04
 -1       212-4.29144E-03 1.08702E-11-5.44061E-04
 -1       213-4.29063E-03-2.04851E-06-5.44309E-04
 -1       214-4.84171E-03 2.33761E-12-5.50917E-04
 -1       215-5.39631E-03 6.09420E-07-5.54680E-04
 -1       216-5.39659E-03-9.91263E-12-5.54550E-04
 -1       217-5.39631E-03-6.09440E-07-5.54680E-04
 -1       218-5.95307E-03-2.46936E-11-5.55902E-04
 -1       219-4.48405E-05 4.15980E-12 7.48913E-15
 -1       220-1.71510E-04 7.79988E-12 1.46566E-12
 -1       221-1.74143E-04 1.09354E-11-7.77107E-05
 -1       222-1.74961E-04 8.26723E-12-1.59687E-13
 -1       223-1.74143E-04 5.62831E-12 7.77107E-05
 -1       224-1.71510E-04 8.56343E-12-1.70502E-12
 -1       225-3.71327E-04 1.19727E-11-6.48923E-13
 -1       226-6.34256E-04 1.59580E-11 2.63276E-12
 -1       227-6.40942E-04 1.88601E-11-1.44367E-04
 -1       228-6.39498E-04 1.61387E-11-3.12516E-16
 -1       229-6.40942E-04 1.33611E-11 1.44367E-04
 -1       230-6.34256E-04 1.62484E-11-1.33806E-12
 -1       231-9.63012E-04 1.89919E-11 2.18417E-12
 -1       232-1.33624E-03 1.99671E-11 4.43195E-12
 -1       233-1.34109E-03 2.06455E-11-1.96089E-04
 -1       234-1.33985E-03 1.91413E-11 4.10251E-12
 -1       235-1.34109E-03 1.73232E-11 1.96089E-04
 -1       236-1.33624E-03 1.83348E-11 3.46977E-12
 -1       237-1.75992E-03 1.84295E-11 5.28302E-12
 -1       238-2.21521E-03 2.12778E-11 6.46535E-12
 -1       239-2.21888E-03 2.27926E-11-2.33521E-04
 -1       240-2.21784E-03 1.95567E-11 6.85651E-12
 -1       241-2.21888E-03 1.58034E-11 2.33521E-04
 -1       242-2.21521E-03 1.73683E-11 7.30350E-12
 -1       243-2.70561E-03 2.09021E-11 7.75180E-12
 -1       244-3.21598E-03 1.88892E-11 3.49100E-12
 -1       245-3.21826E-03 2.22786E-11-2.58023E-04
 -1       246-3.21760E-03 1.96695E-11 5.89136E-12
 -1       247-3.21826E-03 1.74874E-11 2.58023E-04
 -1       248-3.21598E-03 1.98028E-11 7.70195E-12
 -1       249-3.74741E-03 1.49975E-11 2.29425E-12
 -1       250-4.28931E-03 6.58900E-12-8.46866E-12
 -1       251-4.29049E-03 9.13168E-12-2.71573E-04
 -1       252-4.29015E-03 7.72483E-12-1.86939E-12
 -1       253-4.29049E-03 6.44802E-12 2.71573E-04
 -1       254-4.28931E-03 8.60826E-12 4.37127E-12
 -1       255-4.84092E-03-8.82341E-13-6.14046E-12
 -1       256-5.39592E-03-1.20490E-11-1.79856E-11
 -1       257-5.39635E-03-1.07569E-11-2.77026E-04
 -1       258-5.39624E-03-1.18254E-11-9.26749E-12
 -1       259-5.39635E-03-1.26495E-11 2.77026E-04
 -1       260-5.39592E-03-1.13831E-11-1.01452E-12
 -1       261-5.95297E-03-2.49030E-11-1.06989E-11
 -3
    1PSTEP                         4           1           2          
    1PGM                1.000000E+00                                  
    1PGK                6.770787E+03                                  
    1PHID                         -1                                  
    1PSUBC                         0                                  
    1PMODE                         1                                  
  100CL  102 1.30960E+01         261                     2    2MODAL      1
 -4  STRESS      6    1
 -5  SXX         1    4    1    1
 -5  SYY         1    4    2    2
 -5  SZZ         1    4    3    3
 -5  SXY         1    4    1    2
 -5  SYZ         1    4    2    3
 -5  SZX         1    4    3    1
 -1         1-1.17037E+07-1.24288E+07-4.00459E+07 1.28414E+06-7.55766E+06-1.40813E+06
 -1         2 1.17037E+07 1.24288E+07 4.00459E+07 1.28414E+06 7.55766E+06-1.40813E+06
 -1         3 1.17037E+07 1.24288E+07 4.00459E+07-1.28414E+06-7.55766E+06-1.40812E+06
 -1         4-1.17037E+07-1.24288E+07-4.00459E+07-1.28414E+06 7.55766E+06-1.40812E+06
 -1         5 2.38884E+04 3.16776E+03 1.76284E+05-4.03815E+03-2.44045E+03 9.28117E+03
 -1         6-2.38884E+04-3.16740E+03-1.76284E+05-4.03818E+03 2.44065E+03 9.28117E+03
 -1         7-2.38881E+04-3.16753E+03-1.76285E+05 4.03813E+03-2.44056E+03 9.28110E+03
 -1         8 2.38885E+04 3.16755E+03 1.76285E+05 4.03800E+03 2.44065E+03 9.28118E+03
 -1         9-3.10417E+06-5.02009E+06-1.87893E+07 1.26819E+06-3.78742E+06 1.11481E+06
 -1        10 2.12396E-01 4.58597E-01 1.22203E+00 1.25225E+06 5.60544E-01 3.63774E+06
 -1        11 3.10417E+06 5.02009E+06 1.87893E+07 1.26819E+06 3.78742E+06 1.11481E+06
 -1        12 1.13316E+07 1.20089E+07 3.90182E+07 3.91019E+05 3.67814E+06-3.59145E+06
 -1        13 1.09596E+07 1.15890E+07 3.79905E+07 2.38083E-02-1.55777E-01-5.77478E+06
 -1        14 1.13316E+07 1.20089E+07 3.90182E+07-3.91019E+05-3.67814E+06-3.59145E+06
 -1        15 3.10417E+06 5.02009E+06 1.87893E+07-1.26819E+06-3.78742E+06 1.11481E+06
 -1        16-5.19144E-01-5.98594E-01-1.85863E+00-1.25225E+06 8.37547E-01 3.63774E+06
 -1        17-3.10417E+06-5.02009E+06-1.87893E+07-1.26819E+06 3.78742E+06 1.11481E+06
 -1        18-1.13316E+07-1.20089E+07-3.90182E+07-3.91019E+05 3.67815E+06-3.59145E+06
 -1        19-1.09596E+07-1.15890E+07-3.79905E+07 2.63795E-02 9.31533E-01-5.77478E+06
 -1        20-1.13316E+07-1.20089E+07-3.90182E+07 3.91019E+05-3.67814E+06-3.59145E+06
 -1        21 2.61981E+04-2.48867E+03 6.55922E+04-1.16785E+04-1.49708E+03-9.17087E+03
 -1        22 3.92946E-01 1.23378E-01 2.54783E-01-1.93188E+04 1.17510E-01-2.76229E+04
 -1        23-2.61977E+04 2.48897E+03-6.55919E+04-1.16785E+04 1.49729E+03-9.17087E+03
 -1        24-2.25279E+04-4.13116E+04-1.74918E+05-4.07477E+03 3.73842E+03 8.37261E+03
 -1        25-2.11674E+04-7.94558E+04-1.73553E+05 1.76003E-02-2.86087E-01 7.46408E+03
 -1        26-2.25277E+04-4.13117E+04-1.74919E+05 4.07476E+03-3.73867E+03 8.37261E+03
 -1        27-2.61973E+04 2.48878E+03-6.55923E+04 1.16786E+04-1.49716E+03-9.17101E+03
 -1        28 7.10995E-01-5.36202E-02-1.25300E-01 1.93190E+04 8.53084E-02-2.76231E+04
 -1        29 2.61982E+04-2.48882E+03 6.55920E+04 1.16784E+04 1.49728E+03-9.17095E+03
 -1        30 2.25278E+04 4.13122E+04 1.74919E+05 4.07463E+03 3.73836E+03 8.37265E+03
 -1        31 2.11674E+04 7.94570E+04 1.73553E+05 3.03140E-02-2.67473E-01 7.46410E+03
 -1        32 2.25280E+04 4.13125E+04 1.74919E+05-4.07467E+03-3.73853E+03 8.37262E+03
 -1        33 3.43097E+06 3.77315E+06 3.48536E+07 7.39488E+05 2.10989E+06-7.95577E+04
 -1        34-2.88140E+06-2.78689E+06 3.02241E+07-3.34050E+05-1.54183E+06-2.64657E+05
 -1        35-5.84589E+05-4.33068E+05 2.78494E+07-2.77996E+05-1.40981E+05-5.49499E+05
 -1        36 3.66343E+05 1.98935E+05 2.49123E+07 2.19032E+05-2.46934E+05-1.08325E+04
 -1        37 2.54858E+05 1.84966E+05 2.17857E+07 5.51181E+04-1.22376E+05-3.58469E+05
 -1        38-2.35082E+05-1.30276E+05 1.86090E+07-3.82434E+04-2.37726E+05-2.75890E+05
 -1        39-3.47596E+04-3.55788E+04 1.57118E+07-1.77999E+04-1.86854E+05-3.44778E+05
 -1        40 7.40175E+03 1.23343E+04 1.28316E+07 1.22399E+04-1.67220E+05-2.52486E+05
 -1        41 1.22467E+04 9.78849E+03 1.02645E+07 1.81519E+03-1.51370E+05-2.77840E+05
 -1        42-3.16759E+04-1.22323E+04 7.70580E+06-3.83761E+03-1.48338E+05-2.41255E+05
 -1        43-1.23544E+04-5.26725E+03 5.65715E+06-2.79691E+03-1.25968E+05-2.22047E+05
 -1        44-1.50445E+04-4.13853E+03 3.61050E+06-6.25376E+02-1.06083E+05-1.79894E+05
 -1        45-1.47327E+04-3.43279E+03 2.23983E+06-2.93878E+03-8.36746E+04-1.46990E+05
 -1        46-1.80031E+04-6.12232E+03 8.75364E+05-2.14890E+03-5.90693E+04-1.04287E+05
 -1        47-1.91839E+04-6.12573E+03 3.41514E+05-2.47219E+03-2.58149E+04-4.95435E+04
 -1        48 1.91840E+04 6.12585E+03-3.41515E+05-2.47217E+03 2.58150E+04-4.95436E+04
 -1        49 1.80032E+04 6.12248E+03-8.75367E+05-2.14886E+03 5.90693E+04-1.04287E+05
 -1        50 1.47328E+04 3.43292E+03-2.23983E+06-2.93869E+03 8.36747E+04-1.46990E+05
 -1        51 1.50446E+04 4.13842E+03-3.61051E+06-6.25379E+02 1.06083E+05-1.79894E+05
 -1        52 1.23545E+04 5.26730E+03-5.65716E+06-2.79702E+03 1.25968E+05-2.22047E+05
 -1        53 3.16762E+04 1.22323E+04-7.70580E+06-3.83764E+03 1.48338E+05-2.41255E+05
 -1        54-1.22466E+04-9.78867E+03-1.02645E+07 1.81530E+03 1.51370E+05-2.77840E+05
 -1        55-7.40173E+03-1.23343E+04-1.28316E+07 1.22400E+04 1.67220E+05-2.52486E+05
 -1        56 3.47596E+04 3.55789E+04-1.57118E+07-1.77999E+04 1.86854E+05-3.44778E+05
 -1        57 2.35082E+05 1.30276E+05-1.86090E+07-3.82434E+04 2.37726E+05-2.75890E+05
 -1        58-2.54857E+05-1.84966E+05-2.17857E+07 5.51181E+04 1.22376E+05-3.58469E+05
 -1        59-3.66343E+05-1.98935E+05-2.49123E+07 2.19032E+05 2.46934E+05-1.08324E+04
 -1        60 5.84589E+05 4.33068E+05-2.78494E+07-2.77996E+05 1.40981E+05-5.49498E+05
 -1        61 2.88140E+06 2.78689E+06-3.02241E+07-3.34050E+05 1.54183E+06-2.64657E+05
 -1        62-3.43097E+06-3.77315E+06-3.48536E+07 7.39488E+05-2.10989E+06-7.95576E+04
 -1        63 3.43097E+06 3.77315E+06 3.48536E+07-7.39488E+05-2.10989E+06-7.95568E+04
 -1        64-2.88140E+06-2.78689E+06 3.02241E+07 3.34050E+05 1.54183E+06-2.64657E+05
 -1        65-5.84589E+05-4.33067E+05 2.78494E+07 2.77996E+05 1.40981E+05-5.49499E+05
 -1        66 3.66343E+05 1.98936E+05 2.49123E+07-2.19032E+05 2.46934E+05-1.08325E+04
 -1        67 2.54857E+05 1.84966E+05 2.17857E+07-5.51181E+04 1.22376E+05-3.58469E+05
 -1        68-2.35082E+05-1.30276E+05 1.86090E+07 3.82434E+04 2.37726E+05-2.75890E+05
 -1        69-3.47599E+04-3.55787E+04 1.57118E+07 1.77999E+04 1.86854E+05-3.44778E+05
 -1        70 7.40163E+03 1.23344E+04 1.28316E+07-1.22400E+04 1.67220E+05-2.52486E+05
 -1        71 1.22468E+04 9.78855E+03 1.02645E+07-1.81532E+03 1.51370E+05-2.77840E+05
 -1        72-3.16761E+04-1.22322E+04 7.70580E+06 3.83762E+03 1.48338E+05-2.41256E+05
 -1        73-1.23545E+04-5.26713E+03 5.65715E+06 2.79702E+03 1.25968E+05-2.22047E+05
 -1        74-1.50445E+04-4.13838E+03 3.61051E+06 6.25372E+02 1.06083E+05-1.79894E+05
 -1        75-1.47328E+04-3.43253E+03 2.23983E+06 2.93875E+03 8.36749E+04-1.46990E+05
 -1        76-1.80032E+04-6.12198E+03 8.75365E+05 2.14894E+03 5.90693E+04-1.04287E+05
 -1        77-1.91839E+04-6.12564E+03 3.41513E+05 2.47218E+03 2.58149E+04-4.95436E+04
 -1        78-3.43097E+06-3.77315E+06-3.48536E+07-7.39488E+05 2.10989E+06-7.95568E+04
 -1        79 2.88140E+06 2.78689E+06-3.02241E+07 3.34051E+05-1.54183E+06-2.64657E+05
 -1        80 5.84589E+05 4.33068E+05-2.78494E+07 2.77996E+05-1.40980E+05-5.49498E+05
 -1        81-3.66343E+05-1.98935E+05-2.49123E+07-2.19032E+05-2.46934E+05-1.08323E+04
 -1        82-2.54857E+05-1.84966E+05-2.17857E+07-5.51181E+04-1.22376E+05-3.58469E+05
 -1        83 2.35082E+05 1.30276E+05-1.86090E+07 3.82435E+04-2.37726E+05-2.75890E+05
 -1        84 3.47598E+04 3.55787E+04-1.57118E+07 1.78000E+04-1.86854E+05-3.44778E+05
 -1        85-7.40156E+03-1.23345E+04-1.28316E+07-1.22399E+04-1.67220E+05-2.52486E+05
 -1        86-1.22466E+04-9.78873E+03-1.02645E+07-1.81530E+03-1.51370E+05-2.77840E+05
 -1        87 3.16761E+04 1.22323E+04-7.70580E+06 3.83754E+03-1.48338E+05-2.41256E+05
 -1        88 1.23545E+04 5.26723E+03-5.65715E+06 2.79696E+03-1.25968E+05-2.22048E+05
 -1        89 1.50446E+04 4.13824E+03-3.61051E+06 6.25376E+02-1.06083E+05-1.79894E+05
 -1        90 1.47330E+04 3.43255E+03-2.23983E+06 2.93871E+03-8.36748E+04-1.46990E+05
 -1        91 1.80033E+04 6.12206E+03-8.75367E+05 2.14886E+03-5.90698E+04-1.04287E+05
 -1        92 1.91840E+04 6.12563E+03-3.41515E+05 2.47208E+03-2.58151E+04-4.95436E+04
 -1        93 8.24993E-03 1.98512E-01 5.59227E-01 3.59122E+05 6.12138E-01 1.43306E+06
 -1        94-2.78451E+06-4.60474E+06-1.77245E+07 5.22380E-02 7.91302E-01-3.27320E+06
 -1        95-1.23058E-01 4.45283E-02 3.31382E-02 1.14489E-02 6.48840E-01-7.71611E+05
 -1        96 2.78451E+06 4.60474E+06 1.77245E+07-1.56952E-02 2.45416E-01-3.27320E+06
 -1        97-2.84682E-01-2.23982E-01-8.44385E-01-3.59122E+05 7.35747E-01 1.43307E+06
 -1        98 6.08136E-01 5.91907E-01 3.70313E-01-1.93553E+04 1.23355E-02-1.81624E+04
 -1        99 2.40449E+04 3.83119E+04 7.38705E+04 2.27688E-01-2.14440E-01-6.18870E+02
 -1       100 7.13986E-01 9.15070E-01 3.14607E-01 4.16552E-01-1.33117E-01-8.70183E+03
 -1       101-2.40442E+04-3.83104E+04-7.38701E+04 2.12820E-01-1.95457E-01-6.18867E+02
 -1       102 6.57821E-01 3.58043E-01 9.03583E-03 1.93557E+04-4.40434E-02-1.81625E+04
 -1       103-4.30279E-01 8.75660E-02 6.98256E-01 8.77878E+05 2.55133E-01-1.62012E+05
 -1       104 5.80132E+05 1.07480E+06-1.54127E+07-1.83140E+05 7.99644E+05-1.27665E+06
 -1       105-8.99357E-01-1.78304E-01 3.44085E-01-3.22299E+04-1.44034E-01-2.28864E+06
 -1       106-5.80133E+05-1.07480E+06 1.54127E+07-1.83140E+05-7.99644E+05-1.27665E+06
 -1       107-1.07671E-01 1.28726E-01 4.02853E-01-1.48566E+05-1.32825E-01-1.87145E+06
 -1       108 1.86594E+05 5.78323E+04-1.22806E+07 2.01222E+05 1.02598E+05-1.25803E+06
 -1       109 5.44517E-01 2.36280E-01-4.63811E-02 1.83411E+05 3.09547E-02-2.50523E+06
 -1       110-1.86593E+05-5.78322E+04 1.22806E+07 2.01222E+05-1.02598E+05-1.25803E+06
 -1       111 5.47890E-01 4.05627E-02-6.44137E-02 3.37542E+04 6.67088E-02-2.16710E+06
 -1       112 9.47638E+04 5.33238E+04-9.32646E+06-3.47789E+04 1.03042E+05-1.23450E+06
 -1       113 4.60580E-01-1.93429E-02 6.65552E-01-3.13143E+04-1.28744E-02-2.19310E+06
 -1       114-9.47633E+04-5.33239E+04 9.32646E+06-3.47789E+04-1.03042E+05-1.23450E+06
 -1       115 6.11079E-02 8.88936E-02 5.31501E-01-1.35333E+04-7.73611E-02-2.00679E+06
 -1       116 3.53021E+04 6.85982E+03-6.40873E+06 7.82516E+03 6.80318E+04-1.11897E+06
 -1       117-2.99289E-01 5.67382E-02-2.18896E-01 3.41028E+03 5.18711E-03-1.98546E+06
 -1       118-3.53024E+04-6.85973E+03 6.40873E+06 7.82505E+03-6.80316E+04-1.11897E+06
 -1       119-7.79768E-02-6.59577E-02-1.43076E+00-4.78819E+03-5.83124E-03-1.78944E+06
 -1       120 2.29162E+04 3.69553E+03-3.86710E+06-6.88560E+03 6.12474E+04-9.45771E+05
 -1       121 2.02304E-01 8.25844E-02-2.55436E+00-9.93355E+03-7.49843E-02-1.65029E+06
 -1       122-2.29159E+04-3.69547E+03 3.86710E+06-6.88558E+03-6.12474E+04-9.45771E+05
 -1       123 2.29908E-01 1.88062E-01-2.94808E+00-9.78517E+03 1.79023E-03-1.42702E+06
 -1       124 1.81626E+04-6.69332E+02-1.82290E+06-5.28702E+03 4.33585E+04-7.03706E+05
 -1       125 2.05129E-01 2.66814E-03-3.20149E+00-9.94864E+03 6.43651E-02-1.22752E+06
 -1       126-1.81623E+04 6.69280E+02 1.82289E+06-5.28701E+03-4.33584E+04-7.03706E+05
 -1       127 4.88774E-01-8.03953E-02-2.46617E+00-1.22405E+04 5.80571E-02-9.46671E+05
 -1       128 1.85188E+04-1.41428E+03-4.60586E+05-6.93606E+03 2.44112E+04-3.90416E+05
 -1       129 8.37902E-01-9.31059E-02-1.52028E+00-1.17233E+04 3.17980E-02-6.76546E+05
 -1       130-1.85179E+04 1.41427E+03 4.60583E+05-6.93614E+03-2.44112E+04-3.90416E+05
 -1       131 6.42706E-01-8.95260E-03-5.16545E-01-1.45833E+04 7.37681E-02-3.51243E+05
 -1       132 3.60632E+06 4.93639E+06 3.55187E+07 6.06432E-02-1.29207E-01-1.79330E+06
 -1       133-2.72914E+06-1.60918E+06 3.09605E+07-5.36965E+04-5.97862E+05 1.88430E+05
 -1       134-2.57688E+06-4.31459E+05 3.16970E+07 9.28790E-02-1.17716E-01 6.41518E+05
 -1       135-2.72914E+06-1.60918E+06 3.09605E+07 5.36965E+04 5.97862E+05 1.88430E+05
 -1       136-7.20492E+05 2.92761E+05 2.79092E+07 8.39244E-02 2.42754E-01-2.06504E+05
 -1       137 4.02551E+05 8.24276E+04 2.50293E+07 4.53419E+04-2.91451E+05-2.53352E+04
 -1       138 4.38759E+05-3.40798E+04 2.51463E+07 6.16472E-02 6.20378E-01-3.98379E+04
 -1       139 4.02551E+05 8.24281E+04 2.50293E+07-4.53419E+04 2.91452E+05-2.53352E+04
 -1       140 2.65060E+05 5.76087E+04 2.17517E+07-2.16502E-02 1.28603E-01-2.48056E+05
 -1       141-2.27285E+05-8.62677E+04 1.86070E+07-5.18259E+03-1.89926E+05-1.96499E+05
 -1       142-2.19489E+05-4.22591E+04 1.86050E+07-8.09441E-02-5.67079E-01-1.17108E+05
 -1       143-2.27286E+05-8.62673E+04 1.86070E+07 5.18249E+03 1.89926E+05-1.96499E+05
 -1       144-4.78101E+04-2.39990E+04 1.56937E+07-4.86118E-02-4.71104E-01-1.87530E+05
 -1       145 1.22712E+04-1.00285E+04 1.28233E+07 2.60160E+03-1.75476E+05-1.93640E+05
 -1       146 1.71407E+04-3.23914E+04 1.28151E+07-1.61841E-02-2.95562E-02-1.34794E+05
 -1       147 1.22711E+04-1.00285E+04 1.28233E+07-2.60167E+03 1.75475E+05-1.93640E+05
 -1       148 1.19344E+04-3.38019E+04 1.02314E+07 1.77813E-02 6.92960E-01-1.54507E+05
 -1       149-3.04631E+04-2.96431E+04 7.68734E+06-1.75673E+03-1.43916E+05-1.85781E+05
 -1       150-2.92501E+04-4.70539E+04 7.66889E+06 6.11180E-02 1.13821E+00-1.30306E+05
 -1       151-3.04630E+04-2.96430E+04 7.68734E+06 1.75680E+03 1.43918E+05-1.85781E+05
 -1       152-1.40637E+04-5.15717E+04 5.61411E+06 4.20024E-02 3.68705E-01-1.22465E+05
 -1       153-1.46702E+04-3.18999E+04 3.58640E+06-1.39618E+03-1.07476E+05-1.38796E+05
 -1       154-1.42959E+04-5.96611E+04 3.56230E+06-3.94634E-02-1.00326E-01-9.76970E+04
 -1       155-1.46702E+04-3.18997E+04 3.58640E+06 1.39614E+03 1.07476E+05-1.38796E+05
 -1       156-1.37499E+04-6.63106E+04 2.18494E+06-1.74504E-02 1.68594E-01-8.10801E+04
 -1       157-1.81846E+04-4.24703E+04 8.41263E+05-2.30673E+03-5.87969E+04-8.10364E+04
 -1       158-1.83662E+04-7.88182E+04 8.07162E+05 6.20652E-02 4.56865E-02-5.77861E+04
 -1       159-1.81848E+04-4.24700E+04 8.41264E+05 2.30682E+03 5.87970E+04-8.10364E+04
 -1       160-2.03857E+04-8.20494E+04 3.06387E+05 4.51832E-02-2.32640E-01-2.62299E+04
 -1       161 6.66068E-02-2.22054E-01-9.17460E-01-8.77878E+05 2.49639E-01-1.62011E+05
 -1       162-5.80132E+05-1.07480E+06 1.54127E+07 1.83140E+05 7.99644E+05-1.27665E+06
 -1       163 6.16194E-01 2.09120E-01 1.40868E-01 3.22298E+04-1.28359E-01-2.28864E+06
 -1       164 5.80133E+05 1.07480E+06-1.54127E+07 1.83140E+05-7.99644E+05-1.27665E+06
 -1       165 5.44242E-01 2.47398E-01 5.59377E-01 1.48566E+05 1.13767E-01-1.87145E+06
 -1       166-1.86593E+05-5.78321E+04 1.22806E+07-2.01222E+05 1.02598E+05-1.25803E+06
 -1       167 4.67448E-01 1.20651E-01 8.95557E-01-1.83412E+05 1.76427E-01-2.50523E+06
 -1       168 1.86594E+05 5.78323E+04-1.22806E+07-2.01222E+05-1.02598E+05-1.25803E+06
 -1       169 2.84019E-01 1.17881E-01 1.37265E+00-3.37543E+04 1.82569E-02-2.16710E+06
 -1       170-9.47637E+04-5.33237E+04 9.32646E+06 3.47789E+04 1.03042E+05-1.23450E+06
 -1       171-1.38671E-02 1.35885E-01 1.61181E+00 3.13144E+04-2.08169E-01-2.19310E+06
 -1       172 9.47638E+04 5.33239E+04-9.32645E+06 3.47790E+04-1.03042E+05-1.23450E+06
 -1       173-1.65901E-01 1.48208E-02 7.31184E-01 1.35332E+04-1.30986E-01-2.00679E+06
 -1       174-3.53023E+04-6.85982E+03 6.40873E+06-7.82536E+03 6.80314E+04-1.11897E+06
 -1       175-6.18170E-02-7.68938E-02-1.22143E-02-3.41068E+03 7.28220E-04-1.98545E+06
 -1       176 3.53023E+04 6.85968E+03-6.40873E+06-7.82525E+03-6.80314E+04-1.11897E+06
 -1       177-4.48141E-02-2.76936E-01 3.19729E-01 4.78786E+03 7.51190E-02-1.78944E+06
 -1       178-2.29161E+04-3.69566E+03 3.86710E+06 6.88556E+03 6.12477E+04-9.45772E+05
 -1       179-8.89541E-02-2.08684E-01 9.62638E-01 9.93343E+03 6.09495E-02-1.65029E+06
 -1       180 2.29160E+04 3.69550E+03-3.86710E+06 6.88546E+03-6.12475E+04-9.45772E+05
 -1       181 6.51089E-02 2.06633E-02 3.15532E-01 9.78502E+03-7.30106E-02-1.42702E+06
 -1       182-1.81623E+04 6.69335E+02 1.82289E+06 5.28685E+03 4.33584E+04-7.03706E+05
 -1       183 1.85017E-01 1.31630E-02-5.92515E-01 9.94834E+03-1.20330E-02-1.22752E+06
 -1       184 1.81626E+04-6.69387E+02-1.82289E+06 5.28687E+03-4.33585E+04-7.03706E+05
 -1       185 1.36066E-01 1.65135E-01-5.23292E-01 1.22403E+04-4.77539E-03-9.46672E+05
 -1       186-1.85184E+04 1.41469E+03 4.60584E+05 6.93617E+03 2.44111E+04-3.90417E+05
 -1       187-1.12747E-02 2.83620E-01-6.10351E-01 1.17233E+04-1.68943E-01-6.76547E+05
 -1       188 1.85184E+04-1.41436E+03-4.60585E+05 6.93604E+03-2.44115E+04-3.90417E+05
 -1       189 3.03344E-01 8.38482E-02-4.53895E-01 1.45834E+04-6.59805E-02-3.51244E+05
 -1       190-3.60632E+06-4.93639E+06-3.55187E+07 5.61999E-02 9.73384E-01-1.79330E+06
 -1       191 2.72914E+06 1.60918E+06-3.09605E+07 5.36966E+04-5.97861E+05 1.88430E+05
 -1       192 2.57688E+06 4.31459E+05-3.16970E+07 2.47279E-02 9.33266E-01 6.41518E+05
 -1       193 2.72914E+06 1.60918E+06-3.09605E+07-5.36965E+04 5.97862E+05 1.88430E+05
 -1       194 7.20492E+05-2.92760E+05-2.79092E+07-3.98486E-02 3.79211E-01-2.06504E+05
 -1       195-4.02551E+05-8.24275E+04-2.50293E+07-4.53419E+04-2.91452E+05-2.53351E+04
 -1       196-4.38759E+05 3.40804E+04-2.51463E+07 4.88840E-02-1.14464E-01-3.98378E+04
 -1       197-4.02551E+05-8.24276E+04-2.50293E+07 4.53419E+04 2.91452E+05-2.53351E+04
 -1       198-2.65060E+05-5.76089E+04-2.17517E+07 1.56788E-01-2.86901E-01-2.48056E+05
 -1       199 2.27286E+05 8.62671E+04-1.86070E+07 5.18270E+03-1.89926E+05-1.96499E+05
 -1       200 2.19489E+05 4.22584E+04-1.86050E+07 1.27180E-01-4.33862E-01-1.17108E+05
 -1       201 2.27286E+05 8.62672E+04-1.86070E+07-5.18254E+03 1.89926E+05-1.96499E+05
 -1       202 4.78102E+04 2.39977E+04-1.56937E+07 1.39260E-01 2.86070E-01-1.87530E+05
 -1       203-1.22712E+04 1.00273E+04-1.28233E+07-2.60154E+03-1.75475E+05-1.93640E+05
 -1       204-1.71407E+04 3.23892E+04-1.28151E+07 1.91639E-01 9.66479E-01-1.34795E+05
 -1       205-1.22712E+04 1.00276E+04-1.28233E+07 2.60180E+03 1.75476E+05-1.93640E+05
 -1       206-1.19343E+04 3.38008E+04-1.02314E+07 6.19199E-02 6.73950E-02-1.54507E+05
 -1       207 3.04632E+04 2.96432E+04-7.68734E+06 1.75670E+03-1.43918E+05-1.85781E+05
 -1       208 2.92502E+04 4.70540E+04-7.66889E+06-4.67839E-02-8.31834E-01-1.30306E+05
 -1       209 3.04632E+04 2.96431E+04-7.68735E+06-1.75680E+03 1.43917E+05-1.85781E+05
 -1       210 1.40638E+04 5.15720E+04-5.61412E+06-2.56163E-02-3.23125E-01-1.22465E+05
 -1       211 1.46703E+04 3.18998E+04-3.58640E+06 1.39615E+03-1.07476E+05-1.38796E+05
 -1       212 1.42960E+04 5.96614E+04-3.56230E+06-4.23945E-02 3.36625E-01-9.76971E+04
 -1       213 1.46703E+04 3.19000E+04-3.58640E+06-1.39619E+03 1.07476E+05-1.38796E+05
 -1       214 1.37500E+04 6.63107E+04-2.18494E+06 2.22256E-02 1.88169E-02-8.10802E+04
 -1       215 1.81847E+04 4.24700E+04-8.41266E+05 2.30673E+03-5.87976E+04-8.10365E+04
 -1       216 1.83663E+04 7.88181E+04-8.07164E+05 1.26363E-01-5.97641E-01-5.77862E+04
 -1       217 1.81848E+04 4.24703E+04-8.41266E+05-2.30660E+03 5.87968E+04-8.10365E+04
 -1       218 2.03858E+04 8.20499E+04-3.06388E+05 8.70328E-02-5.24253E-01-2.62300E+04
 -1       219-2.82245E-03 2.41154E-01 5.48387E-02 2.07218E-02 5.32471E-01-2.27574E+06
 -1       220-4.24048E-01 1.19243E-01 9.29533E-02 2.48124E+05 9.54498E-02-2.34196E+06
 -1       221 3.48264E+05-1.45050E+05-1.62099E+07-2.30944E-02 6.32229E-01-8.76877E+05
 -1       222 1.75362E-01 4.13727E-01-1.15811E-01-1.10308E-02 3.64007E-01-2.39527E+06
 -1       223-3.48264E+05 1.45051E+05 1.62099E+07 7.08671E-02 1.39553E-01-8.76877E+05
 -1       224 4.57829E-01 3.09892E-01 3.37114E-02-2.48124E+05 1.32361E-01-2.34196E+06
 -1       225 4.20001E-01 5.54061E-01 2.75052E-01 2.01050E-02 2.85792E-01-1.64211E+06
 -1       226 5.53813E-01 4.71545E-01 5.60807E-01 9.72156E+03 8.90187E-02-2.09044E+06
 -1       227 2.13793E+05 1.87740E+05-1.24164E+07 1.02463E-01 7.83395E-02-8.57747E+05
 -1       228 6.07442E-01 7.45961E-01 1.13517E+00 1.47910E-01 2.53845E-01-1.67566E+06
 -1       229-2.13792E+05-1.87739E+05 1.24164E+07 1.00713E-01 4.28463E-01-8.57748E+05
 -1       230 5.59612E-01 4.52882E-01 9.98952E-01-9.72159E+03 2.68518E-01-2.09044E+06
 -1       231 4.82866E-01 3.03993E-01 1.12185E+00 2.82453E-01-5.47607E-02-1.35771E+06
 -1       232 4.20206E-01-1.63038E-01 6.28619E-01 1.74671E+03-1.45588E-01-1.81880E+06
 -1       233 6.16391E+04 1.37475E+03-9.32564E+06 2.90866E-01-4.02947E-01-7.80800E+05
 -1       234 3.41793E-01-2.54374E-01 6.28526E-01 3.43869E-01-3.77714E-01-1.44449E+06
 -1       235-6.16388E+04-1.37532E+03 9.32564E+06 7.61215E-02-4.75238E-01-7.80800E+05
 -1       236 1.44943E-01-3.30642E-02 1.13859E+00-1.74631E+03-3.42648E-01-1.81880E+06
 -1       237 3.36195E-01-8.67446E-01 4.36253E-01 2.89513E-01 7.72621E-02-1.30675E+06
 -1       238 8.59384E-02-6.08804E-01 2.11627E-01-6.22778E+03 2.77140E-01-1.63667E+06
 -1       239 3.19400E+04 3.05522E+04-6.39752E+06 2.63861E-01 7.45876E-01-7.11340E+05
 -1       240 3.88471E-01-1.38777E+00 5.88369E-01 2.41555E-01 5.64841E-01-1.28789E+06
 -1       241-3.19397E+04-3.05547E+04 6.39753E+06 6.54206E-02 2.87425E-01-7.11340E+05
 -1       242 1.21979E-01-7.89042E-01 2.61187E-01 6.22782E+03 2.90658E-01-1.63667E+06
 -1       243 3.19215E-01-7.97594E-01-2.85264E-01 1.78203E-01 2.64178E-01-1.15388E+06
 -1       244 1.66889E-01 5.69125E-02-1.94065E+00-7.85260E+03-1.00764E-01-1.35936E+06
 -1       245 1.88859E+04 2.18742E+04-3.84327E+06 2.42100E-02-4.28688E-01-5.99366E+05
 -1       246 1.62971E-01-8.54916E-02-1.36618E+00 1.49780E-01-7.80971E-02-1.06843E+06
 -1       247-1.88856E+04-2.18742E+04 3.84326E+06 1.32737E-01 5.03779E-01-5.99366E+05
 -1       248 5.27563E-02-2.05454E-01-2.21389E-01 7.85269E+03 1.56490E-02-1.35936E+06
 -1       249 1.68595E-01 1.71555E-01-1.61561E+00 1.34056E-01-3.27229E-03-9.23445E+05
 -1       250 2.12090E-01 9.26162E-02-2.54188E+00-1.07193E+04 1.53025E-01-1.01087E+06
 -1       251 1.74313E+04 2.93953E+04-1.79076E+06 8.14904E-03 2.64272E-01-4.45962E+05
 -1       252 2.14620E-01 2.06143E-01-1.87100E+00 5.64318E-02 1.86469E-01-7.94227E+05
 -1       253-1.74311E+04-2.93949E+04 1.79075E+06 7.35381E-03 4.03463E-02-4.45962E+05
 -1       254 1.97603E-01 1.21442E-01-1.22612E+00 1.07192E+04 5.96104E-02-1.01087E+06
 -1       255 2.25049E-01 1.15581E-02-1.48738E+00-8.69873E-02 6.93606E-02-6.13548E+05
 -1       256 6.11475E-01-1.72372E-01-1.14241E+00-1.18812E+04-7.61531E-02-5.57472E+05
 -1       257 1.83478E+04 3.77103E+04-4.16876E+05-1.35882E-02-4.14028E-01-2.48092E+05
 -1       258 3.27106E-01-4.89503E-02-7.99235E-01-1.84196E-01-2.57526E-01-4.38397E+05
 -1       259-1.83474E+04-3.77104E+04 4.16874E+05-7.63942E-02-1.19475E-01-2.48092E+05
 -1       260 1.28945E-01 2.18679E-01-7.22140E-01 1.18811E+04-2.49945E-01-5.57472E+05
 -1       261 5.64130E-01 4.51765E-01-1.26032E-01 1.20254E-01-2.57345E-01-2.21322E+05
 -3
 9999
